\* Source Pyomo model name=unknown *\

max 
obj1:
+0.4049395011689651 x(0)
+0.31434014579689856 x(1)
+0.29222510838708177 x(2)
+0.11604398515051055 x(3)
+0.07301598834218648 x(4)
+0.3755276067238037 x(5)
+1.1005913113482937 x(6)
-0.08297758639448864 x(7)
+0.7770792964997265 x(8)
+0.13513042920051166 x(9)
+0.21670654823213875 x(10)
+0.5166558751373674 x(11)
+0.14393382700379054 x(12)
+0.4830002704514957 x(13)
+0.3429737684660576 x(14)
-0.04508104564130481 x(15)
+0.556004829362305 x(16)
-0.021949016149121245 x(17)
-0.01730127909646812 x(18)
+1.5108843302510617 x(19)
+0.1685002764687577 x(20)
+0.03993665366958231 x(21)
+0.4755084152693704 x(22)
+0.14577577380188494 x(23)
+0.04264660667979954 x(24)
+0.25558653402754006 x(25)
+0.2430151435625667 x(26)
+0.22643759896492083 x(27)
+0.1435716534635912 x(28)
+0.16396080525099002 x(29)
+0.11256322301481697 x(30)
+0.16401097149562335 x(31)
+0.1580563963449932 x(32)
+0.2802262521248812 x(33)
+0.1644884858442282 x(34)
+0.3336075846747029 x(35)
+0.544362993256169 x(36)
+0.39373898240798344 x(37)
+0.09458593954050273 x(38)
+0.10501810716752355 x(39)
+0.18751959658085118 x(40)
+0.1135439239864545 x(41)
+0.26022200721182465 x(42)
+0.3603136762284768 x(43)
+0.06350483917524993 x(44)
+1.0222122267483864 x(45)
+0.3340594742156805 x(46)
+0.3185792492380898 x(47)
+0.05767069000512691 x(48)
+0.3101784264644589 x(49)
+0.15011212192668158 x(50)
+0.21160418902706116 x(51)
+0.08723917657418907 x(52)
+0.019442517556087596 x(53)
+0.18586621260340125 x(54)
+0.47403507438545217 x(55)
+1.2594217794416098 x(56)
+0.21596760496240794 x(57)
-0.08263820591576268 x(58)
+0.08836853599749164 x(59)
+0.5610505419988369 x(60)
+0.21948342029496054 x(61)
+0.008921024158042051 x(62)
+0.2570752545182648 x(63)
+0.19874294525558295 x(64)
+0.261487362637397 x(65)
+0.25744715361422515 x(66)
+0.1806389431832287 x(67)
+0.2913549822571176 x(68)
+0.1188515880032339 x(69)

s.t.

c_e_const_def_r_:
-0.002347009225362186 x(0)
-0.0017905679256893315 x(1)
-0.00256328366754934 x(2)
-0.0014514140944413697 x(3)
+0.0003231708637616487 x(4)
-0.00284814389535164 x(5)
-0.0009122454471039752 x(6)
+0.0032708250978985354 x(7)
-0.0034878204145311416 x(8)
-0.0013004247429179736 x(9)
-0.0037655184176797686 x(10)
-0.0012766315192749502 x(11)
-0.0009258761128966658 x(12)
-0.0017434275774722004 x(13)
-0.0025565132269024004 x(14)
+0.0008230456484256266 x(15)
-0.0044755145118679784 x(16)
+0.0013147405244131605 x(17)
-0.000851332531738666 x(18)
-0.0019176165192073729 x(19)
-0.001352843187129908 x(20)
+0.0005932715055952878 x(21)
-0.0008303400697055577 x(22)
-0.0010275280625410763 x(23)
+0.0001318042416308398 x(24)
-0.0034149159887372884 x(25)
-0.0011726606081861465 x(26)
-0.0011667886287904943 x(27)
-0.0011773650035516428 x(28)
-0.000325390585363739 x(29)
-0.0012721349262499668 x(30)
-0.00167122873557964 x(31)
-0.0004194600056538592 x(32)
-0.0011712387939549985 x(33)
-0.0010014854150302158 x(34)
-0.0018117029884532178 x(35)
-0.0022723954076288816 x(36)
-0.0034129100030153357 x(37)
-0.0008448030726475106 x(38)
-0.00031899047641288766 x(39)
-0.0015250979107281064 x(40)
-0.00022179373627283317 x(41)
-0.0006401936284281152 x(42)
-0.004401511893421579 x(43)
-0.0007915429901966527 x(44)
-0.0009498748998935425 x(45)
-0.004067701214399346 x(46)
-0.0038031576856724283 x(47)
+0.0011106716356433415 x(48)
-0.004616794297510908 x(49)
-0.0003200311062052799 x(50)
-0.0021702158006949223 x(51)
-0.00028984497123826395 x(52)
+0.0005670283344649832 x(53)
-0.0020978025943084572 x(54)
-0.0016922307703685134 x(55)
-0.001934377601651989 x(56)
-0.0024346908856103583 x(57)
+0.002240716407402466 x(58)
-0.0005546392034874553 x(59)
-0.0014804738140833332 x(60)
-0.0021223650322189694 x(61)
+0.0020079918964961726 x(62)
-0.002626870849705527 x(63)
-0.00400510544964977 x(64)
-0.0033583678327192435 x(65)
-0.0029843393828749456 x(66)
-0.0016873822132943586 x(67)
-0.002923488056225996 x(68)
-0.0002472839489235179 x(69)
+1 r
= 0

c_u_constr_cone_:
+ [
+2.87416026438451e-05 x(0) ^ 2
+3.032528942232246e-05 x(0) * x(1)
+5.317760696713373e-05 x(0) * x(2)
+4.4000657067650065e-05 x(0) * x(3)
+3.134582597485881e-05 x(0) * x(4)
+3.996313888917297e-05 x(0) * x(5)
+1.4066676124664029e-05 x(0) * x(6)
+3.624909478061113e-05 x(0) * x(7)
+1.862567314539424e-05 x(0) * x(8)
+9.022290677515587e-06 x(0) * x(9)
+1.1265716421272807e-05 x(0) * x(10)
+3.0036872675240737e-05 x(0) * x(11)
+4.642670612684222e-05 x(0) * x(12)
+3.1470207475249094e-05 x(0) * x(13)
+2.7023112855738798e-05 x(0) * x(14)
+4.740868444085865e-05 x(0) * x(15)
+2.0882841673105545e-05 x(0) * x(16)
+2.5221023778353386e-05 x(0) * x(17)
+4.26570403290736e-05 x(0) * x(18)
+2.4830841224708668e-05 x(0) * x(19)
+4.625490207274832e-05 x(0) * x(20)
+4.021506977399964e-05 x(0) * x(21)
+4.593440314740424e-05 x(0) * x(22)
+2.6595117280094333e-05 x(0) * x(23)
+2.553061147636116e-05 x(0) * x(24)
+1.5228552153481039e-05 x(0) * x(25)
+3.435416398968174e-05 x(0) * x(26)
+3.332780069732331e-05 x(0) * x(27)
+3.083874408156245e-05 x(0) * x(28)
+2.7898689975904583e-05 x(0) * x(29)
+1.3978258808544402e-05 x(0) * x(30)
+1.6904415278618838e-05 x(0) * x(31)
+3.7660310261067965e-05 x(0) * x(32)
+3.456993072884967e-05 x(0) * x(33)
+4.117855914812291e-05 x(0) * x(34)
+3.541023463623738e-05 x(0) * x(35)
+2.5448383660943382e-05 x(0) * x(36)
+3.9366839991287284e-05 x(0) * x(37)
+1.0988994176871875e-05 x(0) * x(38)
+4.162208806352461e-05 x(0) * x(39)
+5.08647617806134e-05 x(0) * x(40)
+4.319342699417361e-05 x(0) * x(41)
+3.6765337396119044e-05 x(0) * x(42)
+5.506456421667754e-05 x(0) * x(43)
+5.5209275929691394e-05 x(0) * x(44)
+3.2063003465556646e-05 x(0) * x(45)
+3.072886110607245e-06 x(0) * x(46)
+3.981313466276807e-06 x(0) * x(47)
+1.5025861229264637e-05 x(0) * x(48)
-9.957336334400558e-06 x(0) * x(49)
+1.5138071827518068e-05 x(0) * x(50)
+2.2898097264203602e-05 x(0) * x(51)
+2.664579502543822e-05 x(0) * x(52)
+4.411675582597688e-05 x(0) * x(53)
+3.8967242827277154e-05 x(0) * x(54)
+2.368743179206491e-05 x(0) * x(55)
+2.9190613310081642e-05 x(0) * x(56)
+5.330419788893364e-06 x(0) * x(57)
+3.6077440672844935e-05 x(0) * x(58)
+1.1130174457048985e-05 x(0) * x(59)
+2.9137627262748595e-05 x(0) * x(60)
+4.859364234895277e-05 x(0) * x(61)
+1.595587407180676e-05 x(0) * x(62)
+2.9971070201223664e-05 x(0) * x(63)
+1.959218302269202e-05 x(0) * x(64)
+1.652713143248415e-05 x(0) * x(65)
+3.551004127189331e-05 x(0) * x(66)
+3.083880006259936e-05 x(0) * x(67)
+1.8526724362267835e-05 x(0) * x(68)
+4.653730246731403e-05 x(0) * x(69)
+4.611297833013194e-05 x(1) ^ 2
+0.00012112678575676725 x(1) * x(2)
+8.058167427615311e-05 x(1) * x(3)
+7.022032754316231e-05 x(1) * x(4)
+8.840769588252849e-05 x(1) * x(5)
+2.721655306389422e-05 x(1) * x(6)
+4.355442374299438e-05 x(1) * x(7)
+3.824738092531921e-05 x(1) * x(8)
+2.5595661798854634e-05 x(1) * x(9)
+4.6852060653317795e-05 x(1) * x(10)
+3.839712864849741e-05 x(1) * x(11)
+8.598080028897308e-05 x(1) * x(12)
+4.194168130460922e-05 x(1) * x(13)
+6.504023634553151e-05 x(1) * x(14)
+9.110883580956745e-05 x(1) * x(15)
+5.099801733949968e-05 x(1) * x(16)
+7.76687266210908e-05 x(1) * x(17)
+8.041931444468125e-05 x(1) * x(18)
+3.903607507790935e-05 x(1) * x(19)
+0.00010076856580550315 x(1) * x(20)
+9.074316370703502e-05 x(1) * x(21)
+0.0001040439823140562 x(1) * x(22)
+5.113088133840423e-05 x(1) * x(23)
+4.862994598239411e-05 x(1) * x(24)
+5.637786694504216e-05 x(1) * x(25)
+6.96001584831018e-05 x(1) * x(26)
+6.590170867142344e-05 x(1) * x(27)
+7.532419262791737e-05 x(1) * x(28)
+5.4063415748681996e-05 x(1) * x(29)
+3.7766372034795905e-05 x(1) * x(30)
+4.164873618338604e-05 x(1) * x(31)
+6.553423239682588e-05 x(1) * x(32)
+8.444177933462641e-05 x(1) * x(33)
+6.0602680130366496e-05 x(1) * x(34)
+5.231766921144408e-05 x(1) * x(35)
+6.153234210596182e-05 x(1) * x(36)
+8.619371787651621e-05 x(1) * x(37)
+2.4387363525539564e-05 x(1) * x(38)
+7.2295133107029e-05 x(1) * x(39)
+0.00010473038204732327 x(1) * x(40)
+0.00011380813120623173 x(1) * x(41)
+7.207094917149793e-05 x(1) * x(42)
+0.0001403509672790522 x(1) * x(43)
+0.00010384090408717642 x(1) * x(44)
+8.256307129094502e-05 x(1) * x(45)
+1.562876781539804e-05 x(1) * x(46)
+1.3672490460701699e-05 x(1) * x(47)
+5.805114668992614e-05 x(1) * x(48)
-4.768559897318177e-07 x(1) * x(49)
+3.9140964938969e-05 x(1) * x(50)
+5.679182361284351e-05 x(1) * x(51)
+6.13269100618035e-05 x(1) * x(52)
+8.257557085110605e-05 x(1) * x(53)
+9.741555240562736e-05 x(1) * x(54)
+5.5486901807271976e-05 x(1) * x(55)
+5.2771105499338005e-05 x(1) * x(56)
+1.9417874970308504e-05 x(1) * x(57)
+7.64367720571106e-05 x(1) * x(58)
+1.2215871791069394e-05 x(1) * x(59)
+4.8531321714087906e-05 x(1) * x(60)
+8.351216296547884e-05 x(1) * x(61)
+5.886675544403327e-05 x(1) * x(62)
+5.676423107855127e-05 x(1) * x(63)
+4.53336412262203e-05 x(1) * x(64)
+3.3187098416345703e-05 x(1) * x(65)
+6.098305375304276e-05 x(1) * x(66)
+4.6603354071015136e-05 x(1) * x(67)
+2.1226933251291265e-05 x(1) * x(68)
+9.562824757333251e-05 x(1) * x(69)
+0.0002704457337880041 x(2) ^ 2
+0.00013654470963971895 x(2) * x(3)
+0.00015336385325309643 x(2) * x(4)
+0.00015885388123460648 x(2) * x(5)
+3.944671351383032e-05 x(2) * x(6)
+9.488380567933558e-05 x(2) * x(7)
+6.196388087645858e-05 x(2) * x(8)
+8.624217258294299e-05 x(2) * x(9)
+6.703104681809645e-05 x(2) * x(10)
+7.446037668861745e-05 x(2) * x(11)
+0.000283909681799768 x(2) * x(12)
+8.040514296710388e-05 x(2) * x(13)
+0.00011130760658528837 x(2) * x(14)
+0.0001986011626100463 x(2) * x(15)
+8.568290671081503e-05 x(2) * x(16)
+0.00019388746963836388 x(2) * x(17)
+0.00017898906800209495 x(2) * x(18)
+4.7819625748415924e-05 x(2) * x(19)
+0.00016284376708124875 x(2) * x(20)
+0.0001376523325945867 x(2) * x(21)
+0.00019403968401970526 x(2) * x(22)
+8.428786641807955e-05 x(2) * x(23)
+0.0001321551917716645 x(2) * x(24)
+9.965747831075588e-05 x(2) * x(25)
+0.00012078352174279735 x(2) * x(26)
+0.00011977022230568181 x(2) * x(27)
+0.000136228578881755 x(2) * x(28)
+0.00010470178972561783 x(2) * x(29)
+8.075156731874687e-05 x(2) * x(30)
+8.904170967734685e-05 x(2) * x(31)
+0.00012000658823947716 x(2) * x(32)
+0.0001259541624807613 x(2) * x(33)
+9.726564163822149e-05 x(2) * x(34)
+8.476886296932641e-05 x(2) * x(35)
+0.00012219325542955323 x(2) * x(36)
+0.00014062687792119676 x(2) * x(37)
+5.8409677483327084e-05 x(2) * x(38)
+0.00016127437612457833 x(2) * x(39)
+0.0002101020978030443 x(2) * x(40)
+0.00023902778742597693 x(2) * x(41)
+0.00014083604134320106 x(2) * x(42)
+0.00026133661972295013 x(2) * x(43)
+0.00016189597149441755 x(2) * x(44)
+0.00013413399377083235 x(2) * x(45)
+3.8333561311646564e-05 x(2) * x(46)
+2.8394234540070233e-05 x(2) * x(47)
+0.00010790649210438341 x(2) * x(48)
-8.973343439970495e-06 x(2) * x(49)
+8.034356664718435e-05 x(2) * x(50)
+8.137738404185451e-05 x(2) * x(51)
+0.00013655313754098365 x(2) * x(52)
+0.00016766243280426363 x(2) * x(53)
+0.00018411427270434108 x(2) * x(54)
+0.00010249681400884437 x(2) * x(55)
+9.12961386875864e-05 x(2) * x(56)
+3.34218698640804e-05 x(2) * x(57)
+0.00017138306567230754 x(2) * x(58)
+2.3069319407969412e-05 x(2) * x(59)
+6.466140949069517e-05 x(2) * x(60)
+0.00017700945729256997 x(2) * x(61)
+0.00013040044584004508 x(2) * x(62)
+0.00013294716059025516 x(2) * x(63)
+0.00010899906252428118 x(2) * x(64)
+5.903622169890088e-05 x(2) * x(65)
+0.00013627566504424276 x(2) * x(66)
+7.227201960898418e-05 x(2) * x(67)
+5.343612725819944e-05 x(2) * x(68)
+0.00028408799547151585 x(2) * x(69)
+0.00012414098225927965 x(3) ^ 2
+7.025296664034376e-05 x(3) * x(4)
+0.00010676586849066175 x(3) * x(5)
+3.980398406412817e-05 x(3) * x(6)
+5.301213096749446e-05 x(3) * x(7)
+3.377884208717628e-05 x(3) * x(8)
+2.651271458105692e-05 x(3) * x(9)
+4.677907870023582e-05 x(3) * x(10)
+5.335365999370301e-05 x(3) * x(11)
+0.0001086038686088416 x(3) * x(12)
+6.641215982405746e-05 x(3) * x(13)
+8.145431212935953e-05 x(3) * x(14)
+0.00011399967113945523 x(3) * x(15)
+5.749173388361002e-05 x(3) * x(16)
+7.753601260830733e-05 x(3) * x(17)
+8.27588621400643e-05 x(3) * x(18)
+5.0977825111446036e-05 x(3) * x(19)
+0.00011968164547987235 x(3) * x(20)
+0.00011410973315113827 x(3) * x(21)
+0.00011706352232444692 x(3) * x(22)
+7.75496015856837e-05 x(3) * x(23)
+4.936196338787909e-05 x(3) * x(24)
+7.797880548217364e-05 x(3) * x(25)
+9.558563870943143e-05 x(3) * x(26)
+9.468878550778998e-05 x(3) * x(27)
+8.838415134201763e-05 x(3) * x(28)
+6.339061254740526e-05 x(3) * x(29)
+3.841185531963712e-05 x(3) * x(30)
+4.55097228678511e-05 x(3) * x(31)
+7.99183549689809e-05 x(3) * x(32)
+9.14648642614326e-05 x(3) * x(33)
+7.121667018157296e-05 x(3) * x(34)
+5.411946497355407e-05 x(3) * x(35)
+7.391764319176592e-05 x(3) * x(36)
+8.967271326298197e-05 x(3) * x(37)
+2.9188871274562543e-05 x(3) * x(38)
+0.00010633920826223309 x(3) * x(39)
+0.0001098956143038248 x(3) * x(40)
+0.00014379327086358937 x(3) * x(41)
+8.827967336584236e-05 x(3) * x(42)
+0.00014847548429390586 x(3) * x(43)
+0.00011534974491172158 x(3) * x(44)
+9.020402096653496e-05 x(3) * x(45)
+1.9522394619638108e-05 x(3) * x(46)
+1.5709156924995206e-05 x(3) * x(47)
+1.8391778042586362e-05 x(3) * x(48)
-1.3456026440035184e-05 x(3) * x(49)
+3.5856550866677195e-05 x(3) * x(50)
+5.984505361931128e-05 x(3) * x(51)
+6.756660388948258e-05 x(3) * x(52)
+0.0001031911493001903 x(3) * x(53)
+0.00010535069743306609 x(3) * x(54)
+6.682106594000005e-05 x(3) * x(55)
+6.077276693805181e-05 x(3) * x(56)
+2.2469163664306663e-05 x(3) * x(57)
+9.252478089290295e-05 x(3) * x(58)
+2.2978600413824628e-05 x(3) * x(59)
+6.553947884832827e-05 x(3) * x(60)
+0.00011081900866052034 x(3) * x(61)
+7.69776205154098e-05 x(3) * x(62)
+6.86184564845284e-05 x(3) * x(63)
+5.2958118009826124e-05 x(3) * x(64)
+2.349904453740536e-05 x(3) * x(65)
+6.920019418226414e-05 x(3) * x(66)
+5.783945326731801e-05 x(3) * x(67)
+4.3166264171040084e-05 x(3) * x(68)
+0.00012060908717295071 x(3) * x(69)
+9.698854887920558e-05 x(4) ^ 2
+0.00010126067987956621 x(4) * x(5)
+2.510603616534536e-05 x(4) * x(6)
+5.2757964411385376e-05 x(4) * x(7)
+4.747433830219085e-05 x(4) * x(8)
+5.093074995682945e-05 x(4) * x(9)
+9.479096455540432e-05 x(4) * x(10)
+4.81282110479191e-05 x(4) * x(11)
+0.00010494733257072856 x(4) * x(12)
+5.5291949311288544e-05 x(4) * x(13)
+5.782926198347638e-05 x(4) * x(14)
+0.00012796992095356704 x(4) * x(15)
+4.9904324745730444e-05 x(4) * x(16)
+8.967079095585236e-05 x(4) * x(17)
+9.962630698359828e-05 x(4) * x(18)
+3.9629556346334625e-05 x(4) * x(19)
+0.00010488633017885753 x(4) * x(20)
+7.76543867921758e-05 x(4) * x(21)
+0.0001073953928376498 x(4) * x(22)
+4.78768177453369e-05 x(4) * x(23)
+6.492900729962576e-05 x(4) * x(24)
+4.262633749010074e-05 x(4) * x(25)
+8.23600857025759e-05 x(4) * x(26)
+7.480937608417763e-05 x(4) * x(27)
+6.122475286687184e-05 x(4) * x(28)
+4.989735672871797e-05 x(4) * x(29)
+3.8162164067449315e-05 x(4) * x(30)
+4.300282018977934e-05 x(4) * x(31)
+7.775672647295465e-05 x(4) * x(32)
+7.663728160291352e-05 x(4) * x(33)
+7.456299844946739e-05 x(4) * x(34)
+5.421406951828157e-05 x(4) * x(35)
+6.663223986325173e-05 x(4) * x(36)
+8.98480605498121e-05 x(4) * x(37)
+2.7572510870207204e-05 x(4) * x(38)
+9.47763524578837e-05 x(4) * x(39)
+0.00010072004223390666 x(4) * x(40)
+0.00015381282161252286 x(4) * x(41)
+7.138288604851122e-05 x(4) * x(42)
+0.00016858909338618997 x(4) * x(43)
+8.506357566354976e-05 x(4) * x(44)
+7.531306224185787e-05 x(4) * x(45)
+4.0687809357627426e-05 x(4) * x(46)
+3.546634777094595e-05 x(4) * x(47)
+7.231919365677493e-05 x(4) * x(48)
+1.2884801197741436e-05 x(4) * x(49)
+4.44792648802528e-05 x(4) * x(50)
+5.620747490834459e-05 x(4) * x(51)
+9.057541503216328e-05 x(4) * x(52)
+9.586947649779318e-05 x(4) * x(53)
+0.00010449277426151513 x(4) * x(54)
+5.7578521022890376e-05 x(4) * x(55)
+6.356964552219409e-05 x(4) * x(56)
+3.930577981140797e-05 x(4) * x(57)
+9.819690297522461e-05 x(4) * x(58)
+1.4832473971494468e-05 x(4) * x(59)
+5.6997435957075436e-05 x(4) * x(60)
+8.473696891826524e-05 x(4) * x(61)
+5.992192880749698e-05 x(4) * x(62)
+6.669171868977957e-05 x(4) * x(63)
+5.9628745227130445e-05 x(4) * x(64)
+4.681258250082488e-05 x(4) * x(65)
+6.604545773982282e-05 x(4) * x(66)
+5.838030293911837e-05 x(4) * x(67)
+2.332007644965693e-05 x(4) * x(68)
+0.00012183466352439503 x(4) * x(69)
+9.112065255937091e-05 x(5) ^ 2
+3.3547012495387194e-05 x(5) * x(6)
+7.828276659175429e-05 x(5) * x(7)
+5.723452065933502e-05 x(5) * x(8)
+4.1808229563389176e-05 x(5) * x(9)
+6.492616845597967e-05 x(5) * x(10)
+5.415921580383302e-05 x(5) * x(11)
+0.0001173104971361965 x(5) * x(12)
+4.8122441144754445e-05 x(5) * x(13)
+7.615745513027153e-05 x(5) * x(14)
+0.00012283087770823355 x(5) * x(15)
+6.51829424788928e-05 x(5) * x(16)
+0.00011813069353614562 x(5) * x(17)
+5.5512782551982544e-05 x(5) * x(18)
+4.757208497860616e-05 x(5) * x(19)
+0.0001321807452671907 x(5) * x(20)
+0.00011055866466229727 x(5) * x(21)
+0.00013855019522859296 x(5) * x(22)
+6.333679667328209e-05 x(5) * x(23)
+8.030456509407472e-05 x(5) * x(24)
+6.534180212389854e-05 x(5) * x(25)
+8.573820713854111e-05 x(5) * x(26)
+8.33118737557601e-05 x(5) * x(27)
+8.547766268513507e-05 x(5) * x(28)
+7.926843948172193e-05 x(5) * x(29)
+5.2848538420362805e-05 x(5) * x(30)
+5.6267672030990943e-05 x(5) * x(31)
+8.503369182072694e-05 x(5) * x(32)
+9.70714054507673e-05 x(5) * x(33)
+8.382097112517713e-05 x(5) * x(34)
+7.15736080823954e-05 x(5) * x(35)
+8.964344557979995e-05 x(5) * x(36)
+0.00010756944120493415 x(5) * x(37)
+3.5514887541946044e-05 x(5) * x(38)
+0.00011237034085919162 x(5) * x(39)
+0.00015447376341377994 x(5) * x(40)
+0.00015112774948222306 x(5) * x(41)
+9.35171399459115e-05 x(5) * x(42)
+0.00019583061972966562 x(5) * x(43)
+0.00013306336308627656 x(5) * x(44)
+8.990253888811682e-05 x(5) * x(45)
+1.5646930885772005e-05 x(5) * x(46)
+1.3537689789093021e-05 x(5) * x(47)
+7.081657177407055e-05 x(5) * x(48)
-3.471889001608878e-06 x(5) * x(49)
+4.5661397866849176e-05 x(5) * x(50)
+7.409574738924507e-05 x(5) * x(51)
+8.602733062063208e-05 x(5) * x(52)
+0.00011740149690945078 x(5) * x(53)
+0.00012638400923145978 x(5) * x(54)
+6.728471502657532e-05 x(5) * x(55)
+6.237028676908393e-05 x(5) * x(56)
+1.8172349089023267e-05 x(5) * x(57)
+9.568373172267086e-05 x(5) * x(58)
+1.6439013358281718e-05 x(5) * x(59)
+6.69710422672358e-05 x(5) * x(60)
+0.00011418769518468375 x(5) * x(61)
+7.829993826605123e-05 x(5) * x(62)
+7.532184808739318e-05 x(5) * x(63)
+5.6157214660982e-05 x(5) * x(64)
+5.2139392244584405e-05 x(5) * x(65)
+8.536766731998697e-05 x(5) * x(66)
+5.73267537708812e-05 x(5) * x(67)
+4.296812016311946e-05 x(5) * x(68)
+0.00013421254304133017 x(5) * x(69)
+2.2711543568835145e-05 x(6) ^ 2
+1.7746525020171065e-05 x(6) * x(7)
+2.0066501727543078e-05 x(6) * x(8)
+7.260720706612326e-06 x(6) * x(9)
-7.10068704149744e-06 x(6) * x(10)
+2.221982667811345e-05 x(6) * x(11)
+4.05969177984817e-05 x(6) * x(12)
+1.7439770391923534e-05 x(6) * x(13)
+2.7761040171355443e-05 x(6) * x(14)
+3.414843617145616e-05 x(6) * x(15)
+2.5946925604908412e-05 x(6) * x(16)
+2.2669631398973093e-05 x(6) * x(17)
+1.4598617114267156e-05 x(6) * x(18)
+3.402742486838015e-05 x(6) * x(19)
+4.056722829722772e-05 x(6) * x(20)
+2.9297193428887078e-05 x(6) * x(21)
+4.126313540286022e-05 x(6) * x(22)
+3.355196962575752e-05 x(6) * x(23)
+1.7336607999512256e-05 x(6) * x(24)
+8.830711907857421e-06 x(6) * x(25)
+2.6197312189998408e-05 x(6) * x(26)
+2.750105587595291e-05 x(6) * x(27)
+2.1689080933344484e-05 x(6) * x(28)
+2.27462026068491e-05 x(6) * x(29)
+1.504040964760222e-05 x(6) * x(30)
+1.9158927231999086e-05 x(6) * x(31)
+3.37815296110966e-05 x(6) * x(32)
+2.944655372181349e-05 x(6) * x(33)
+4.337597494499877e-05 x(6) * x(34)
+2.5895412669269347e-05 x(6) * x(35)
+2.8394679461817044e-05 x(6) * x(36)
+2.2528282118387362e-05 x(6) * x(37)
+1.861132993592129e-05 x(6) * x(38)
+3.1470413119631544e-05 x(6) * x(39)
+2.6949041725391204e-05 x(6) * x(40)
+4.507729974328153e-05 x(6) * x(41)
+3.593468141481756e-05 x(6) * x(42)
+4.221469590804593e-05 x(6) * x(43)
+2.9294303827828847e-05 x(6) * x(44)
+2.670265056426901e-05 x(6) * x(45)
+1.3018171809864932e-05 x(6) * x(46)
+1.0686330065761133e-05 x(6) * x(47)
+1.67503978488734e-05 x(6) * x(48)
-1.2878080811246514e-06 x(6) * x(49)
+3.553957310382005e-05 x(6) * x(50)
+1.640682416519357e-05 x(6) * x(51)
+2.365768527067115e-05 x(6) * x(52)
+2.072205650709898e-05 x(6) * x(53)
+3.700053966387295e-05 x(6) * x(54)
+1.7758884661975967e-05 x(6) * x(55)
+2.518027373402836e-05 x(6) * x(56)
+1.161148093054977e-05 x(6) * x(57)
+3.083487854917234e-05 x(6) * x(58)
+1.536950622453581e-05 x(6) * x(59)
+2.370761401939263e-05 x(6) * x(60)
+2.7382193155875568e-05 x(6) * x(61)
+3.0264216361248565e-05 x(6) * x(62)
+2.3884808664996376e-05 x(6) * x(63)
+1.610460465360177e-05 x(6) * x(64)
+1.7905823997607155e-05 x(6) * x(65)
+2.870415444353242e-05 x(6) * x(66)
+1.8286718450645423e-05 x(6) * x(67)
+1.8405727934431985e-05 x(6) * x(68)
+3.1102238195750675e-05 x(6) * x(69)
+0.00011441766471149251 x(7) ^ 2
+3.936582654543165e-05 x(7) * x(8)
+7.599914192421747e-05 x(7) * x(9)
+7.72633593573684e-05 x(7) * x(10)
+2.6688493990145545e-05 x(7) * x(11)
+9.621789644838363e-05 x(7) * x(12)
+4.275905269798247e-05 x(7) * x(13)
+4.611175488065801e-05 x(7) * x(14)
+7.853785143546026e-05 x(7) * x(15)
+4.8772202599588385e-05 x(7) * x(16)
+8.259031356115442e-05 x(7) * x(17)
+9.785351946559107e-05 x(7) * x(18)
+2.4100037850134827e-05 x(7) * x(19)
+8.83273081126837e-05 x(7) * x(20)
+6.224445775359296e-05 x(7) * x(21)
+8.007267607091915e-05 x(7) * x(22)
+3.0415769208663032e-05 x(7) * x(23)
+6.242586619327574e-05 x(7) * x(24)
+2.4371972775164726e-05 x(7) * x(25)
+5.288157086134954e-05 x(7) * x(26)
+3.3958267100577654e-05 x(7) * x(27)
+5.221501920192934e-05 x(7) * x(28)
+3.375047509212809e-05 x(7) * x(29)
+3.2078338354812315e-05 x(7) * x(30)
+4.160727585638816e-05 x(7) * x(31)
+6.020149359709659e-05 x(7) * x(32)
+6.0788862764972266e-05 x(7) * x(33)
+5.08016570806776e-05 x(7) * x(34)
+4.528398183955448e-05 x(7) * x(35)
+4.797592053808811e-05 x(7) * x(36)
+9.034950247070271e-05 x(7) * x(37)
+3.4965769080755984e-05 x(7) * x(38)
+8.48556436985489e-05 x(7) * x(39)
+7.943931167097802e-05 x(7) * x(40)
+0.00012880609874768115 x(7) * x(41)
+5.919433955759558e-05 x(7) * x(42)
+0.00011504608863383094 x(7) * x(43)
+7.138529447856502e-05 x(7) * x(44)
+5.756229649368386e-05 x(7) * x(45)
+1.719219387053892e-05 x(7) * x(46)
+1.6819065847815457e-05 x(7) * x(47)
+3.753898068843901e-05 x(7) * x(48)
+2.72878993573329e-06 x(7) * x(49)
+5.591522204626033e-06 x(7) * x(50)
+3.669998235910546e-05 x(7) * x(51)
+3.5208762423561905e-05 x(7) * x(52)
+7.256946983641618e-05 x(7) * x(53)
+8.67298411393204e-05 x(7) * x(54)
+3.0373604095328145e-05 x(7) * x(55)
+2.6176955363410854e-05 x(7) * x(56)
+1.3346243374843369e-05 x(7) * x(57)
+6.092178017398313e-05 x(7) * x(58)
+3.083430274782479e-05 x(7) * x(59)
+4.500523354519322e-05 x(7) * x(60)
+6.92081012125615e-05 x(7) * x(61)
+4.5779417840440365e-05 x(7) * x(62)
+4.690339238192378e-05 x(7) * x(63)
+3.902803553548912e-05 x(7) * x(64)
+3.68787601894418e-05 x(7) * x(65)
+4.6442046398795884e-05 x(7) * x(66)
+2.8099744737958544e-05 x(7) * x(67)
+3.4861205045753716e-05 x(7) * x(68)
+8.261358658539357e-05 x(7) * x(69)
+4.4140701102717305e-05 x(8) ^ 2
+1.9999686177227088e-05 x(8) * x(9)
+3.770044654229762e-05 x(8) * x(10)
+3.525688736529041e-05 x(8) * x(11)
+5.692894808791648e-05 x(8) * x(12)
+2.6709561797269696e-05 x(8) * x(13)
+2.8472484793105783e-05 x(8) * x(14)
+5.7303173525899985e-05 x(8) * x(15)
+3.1418411085168655e-05 x(8) * x(16)
+0.00010920106370260226 x(8) * x(17)
+3.4071894081172826e-05 x(8) * x(18)
+2.096490997111884e-05 x(8) * x(19)
+5.7589199472613564e-05 x(8) * x(20)
+2.483069286289722e-05 x(8) * x(21)
+5.75698671990876e-05 x(8) * x(22)
+3.465463071113747e-05 x(8) * x(23)
+2.8101690262118714e-05 x(8) * x(24)
+1.8287024330069117e-05 x(8) * x(25)
+4.341441432482787e-05 x(8) * x(26)
+3.5861310701575946e-05 x(8) * x(27)
+3.498640684860787e-05 x(8) * x(28)
+3.221011454685205e-05 x(8) * x(29)
+5.73004115514596e-05 x(8) * x(30)
+6.259317763678274e-05 x(8) * x(31)
+3.775839472738637e-05 x(8) * x(32)
+3.806170763745817e-05 x(8) * x(33)
+4.160352048062984e-05 x(8) * x(34)
+3.021521718617828e-05 x(8) * x(35)
+4.220010113072102e-05 x(8) * x(36)
+4.5174608672352095e-05 x(8) * x(37)
+3.294929334654737e-05 x(8) * x(38)
+4.2534669138265206e-05 x(8) * x(39)
+3.889981429755731e-05 x(8) * x(40)
+5.712860160264731e-05 x(8) * x(41)
+4.853583201611419e-05 x(8) * x(42)
+8.779570094316122e-05 x(8) * x(43)
+4.2599420636131615e-05 x(8) * x(44)
+3.730077331736117e-05 x(8) * x(45)
+1.2722103203374552e-05 x(8) * x(46)
+1.1777630895254422e-05 x(8) * x(47)
+1.8172509045288762e-05 x(8) * x(48)
+1.422452779677849e-06 x(8) * x(49)
+2.8693283900976697e-05 x(8) * x(50)
+3.4803191707001475e-05 x(8) * x(51)
+3.067360689484077e-05 x(8) * x(52)
+4.9162496650568336e-05 x(8) * x(53)
+5.68447270184249e-05 x(8) * x(54)
+3.819932328272146e-05 x(8) * x(55)
+2.9728800778847363e-05 x(8) * x(56)
+1.416572967193433e-05 x(8) * x(57)
+3.708870736551391e-05 x(8) * x(58)
+2.672630410373165e-05 x(8) * x(59)
+2.8763613649310503e-05 x(8) * x(60)
+2.798219337940234e-05 x(8) * x(61)
+2.5779077846207675e-05 x(8) * x(62)
+2.4091888168189606e-05 x(8) * x(63)
+6.429324544203347e-05 x(8) * x(64)
+7.891656219325456e-05 x(8) * x(65)
+2.7252963109355054e-05 x(8) * x(66)
+2.4439372509056923e-05 x(8) * x(67)
+2.1363548344470174e-05 x(8) * x(68)
+5.6830849269373105e-05 x(8) * x(69)
+0.00010056576188921232 x(9) ^ 2
+8.452599246524273e-05 x(9) * x(10)
+1.76229220651711e-05 x(9) * x(11)
+4.002100562934588e-05 x(9) * x(12)
+2.4467403424961678e-05 x(9) * x(13)
+2.8966224802312677e-05 x(9) * x(14)
+4.218518412816106e-05 x(9) * x(15)
+2.115938926157742e-05 x(9) * x(16)
+6.812953597098284e-05 x(9) * x(17)
+6.408126224511996e-05 x(9) * x(18)
+5.51435089377713e-06 x(9) * x(19)
+3.639918813929861e-05 x(9) * x(20)
+1.612153311052946e-05 x(9) * x(21)
+4.898176475283819e-05 x(9) * x(22)
+2.4874258721706368e-05 x(9) * x(23)
+3.1392598351535474e-05 x(9) * x(24)
+9.26018423174363e-06 x(9) * x(25)
+2.9699016993034263e-05 x(9) * x(26)
+1.6467419699945445e-05 x(9) * x(27)
+3.9119123626036446e-05 x(9) * x(28)
+2.5483287418203353e-05 x(9) * x(29)
+2.6367754091718025e-05 x(9) * x(30)
+2.510720206946383e-05 x(9) * x(31)
+2.5810018558151992e-05 x(9) * x(32)
+2.8256235260236627e-05 x(9) * x(33)
+1.764434420952174e-05 x(9) * x(34)
+2.1356296829964125e-05 x(9) * x(35)
+2.7669299483578726e-05 x(9) * x(36)
+5.169128582870972e-05 x(9) * x(37)
+3.394786065783973e-05 x(9) * x(38)
+3.461112438869915e-05 x(9) * x(39)
+5.003009879588656e-05 x(9) * x(40)
+8.32122476356477e-05 x(9) * x(41)
+1.0841985892681231e-05 x(9) * x(42)
+7.57996498016015e-05 x(9) * x(43)
+3.177053456933935e-05 x(9) * x(44)
+3.034939211131414e-05 x(9) * x(45)
+5.433756241441517e-05 x(9) * x(46)
+4.7254940556477204e-05 x(9) * x(47)
+2.1929967786148722e-05 x(9) * x(48)
+5.072301884680696e-05 x(9) * x(49)
-5.691210989057462e-06 x(9) * x(50)
-3.3295701304671735e-06 x(9) * x(51)
+2.1044286618135595e-05 x(9) * x(52)
+4.5811626915591636e-05 x(9) * x(53)
+4.213562431547436e-05 x(9) * x(54)
+2.5697509307913865e-05 x(9) * x(55)
+1.5575144179315773e-05 x(9) * x(56)
+8.606092929707339e-06 x(9) * x(57)
+4.2465237792479684e-05 x(9) * x(58)
+2.6415035703828918e-05 x(9) * x(59)
+2.0784694106129072e-05 x(9) * x(60)
+5.5780542110404525e-05 x(9) * x(61)
+3.5443026974140714e-05 x(9) * x(62)
+3.071609312171754e-05 x(9) * x(63)
+3.2496236450902466e-05 x(9) * x(64)
+1.80696998604167e-05 x(9) * x(65)
+3.515386719246625e-05 x(9) * x(66)
+1.2755086796816307e-05 x(9) * x(67)
+6.837980367361225e-06 x(9) * x(68)
+7.708078428369333e-05 x(9) * x(69)
+0.00031118987575176057 x(10) ^ 2
+1.8864993235727234e-05 x(10) * x(11)
+6.157899096280416e-06 x(10) * x(12)
+3.860988733221677e-05 x(10) * x(13)
+4.5677023170262e-05 x(10) * x(14)
+0.0001206944464642463 x(10) * x(15)
+3.8203558156031946e-05 x(10) * x(16)
+0.00012704131380998184 x(10) * x(17)
+0.00015721384114547571 x(10) * x(18)
+2.1949731743492713e-05 x(10) * x(19)
+0.0001061384680403663 x(10) * x(20)
+6.173451537897168e-05 x(10) * x(21)
+8.569560294044438e-05 x(10) * x(22)
+2.9888530873496078e-05 x(10) * x(23)
+5.739886289389229e-05 x(10) * x(24)
-3.3414341070668187e-06 x(10) * x(25)
+7.326803824039148e-05 x(10) * x(26)
+6.0292293912599274e-05 x(10) * x(27)
+5.300500998731472e-05 x(10) * x(28)
+2.2172129710703415e-05 x(10) * x(29)
+3.486425264342259e-05 x(10) * x(30)
+4.339721835669771e-05 x(10) * x(31)
+4.4172042180785696e-05 x(10) * x(32)
+5.55932258743985e-05 x(10) * x(33)
+2.828112014787572e-05 x(10) * x(34)
+3.365520386966525e-05 x(10) * x(35)
+4.8901964831509614e-05 x(10) * x(36)
+8.646561918847276e-05 x(10) * x(37)
+3.677555206051652e-05 x(10) * x(38)
+7.024266377640055e-05 x(10) * x(39)
+9.79437552419311e-05 x(10) * x(40)
+0.00018936365903114827 x(10) * x(41)
+4.6200167437578123e-05 x(10) * x(42)
+0.00019919713077295372 x(10) * x(43)
+9.920872741978343e-05 x(10) * x(44)
+5.635740983726697e-05 x(10) * x(45)
+5.216925277138882e-05 x(10) * x(46)
+4.3630794346225116e-05 x(10) * x(47)
+6.366086386705167e-05 x(10) * x(48)
+4.439896904655249e-05 x(10) * x(49)
-2.7524902196992664e-05 x(10) * x(50)
+6.932398584997556e-05 x(10) * x(51)
+7.649136831730738e-05 x(10) * x(52)
+7.928797063406077e-05 x(10) * x(53)
+7.410972970788005e-05 x(10) * x(54)
+1.5689721074845905e-05 x(10) * x(55)
+3.516565507628915e-05 x(10) * x(56)
+2.8895943570468267e-05 x(10) * x(57)
+7.821595402098921e-05 x(10) * x(58)
+1.7853340077898483e-05 x(10) * x(59)
+6.898984483504783e-05 x(10) * x(60)
+6.242434765595087e-05 x(10) * x(61)
+5.08900195731135e-05 x(10) * x(62)
+7.039401126722106e-05 x(10) * x(63)
+7.512475030039696e-05 x(10) * x(64)
+3.0627081475613186e-05 x(10) * x(65)
+4.873861914891461e-05 x(10) * x(66)
+4.737250990514329e-05 x(10) * x(67)
-1.372116992740621e-06 x(10) * x(68)
+4.7718882947646806e-05 x(10) * x(69)
+3.65773174719126e-05 x(11) ^ 2
+6.618619607824314e-05 x(11) * x(12)
+3.536788532714807e-05 x(11) * x(13)
+4.4692286366057906e-05 x(11) * x(14)
+7.294856936755762e-05 x(11) * x(15)
+2.9972036723343788e-05 x(11) * x(16)
+4.913184040985609e-05 x(11) * x(17)
+6.663987226944653e-05 x(11) * x(18)
+2.897789626015029e-05 x(11) * x(19)
+5.3899051330222814e-05 x(11) * x(20)
+4.010490522509143e-05 x(11) * x(21)
+5.6743266312024986e-05 x(11) * x(22)
+4.666070277952516e-05 x(11) * x(23)
+3.512147798551603e-05 x(11) * x(24)
+3.1758804100880054e-05 x(11) * x(25)
+5.160991524075663e-05 x(11) * x(26)
+4.9261188034778965e-05 x(11) * x(27)
+3.830476480068683e-05 x(11) * x(28)
+3.628673118710034e-05 x(11) * x(29)
+3.112358268869377e-05 x(11) * x(30)
+3.3216989542855976e-05 x(11) * x(31)
+5.0242557598124965e-05 x(11) * x(32)
+4.408791739807673e-05 x(11) * x(33)
+5.1197156447310765e-05 x(11) * x(34)
+4.065112967357894e-05 x(11) * x(35)
+4.856635625905171e-05 x(11) * x(36)
+4.587514305762352e-05 x(11) * x(37)
+2.7115174040167373e-05 x(11) * x(38)
+5.306875738040685e-05 x(11) * x(39)
+5.968440888352009e-05 x(11) * x(40)
+6.546950407143529e-05 x(11) * x(41)
+4.9288379939529565e-05 x(11) * x(42)
+8.663616822030538e-05 x(11) * x(43)
+6.28439344850912e-05 x(11) * x(44)
+4.391085683208317e-05 x(11) * x(45)
+1.687264093870777e-05 x(11) * x(46)
+1.5194519224780147e-05 x(11) * x(47)
+3.0384274609790357e-05 x(11) * x(48)
+9.826119312139172e-06 x(11) * x(49)
+1.874021466347456e-05 x(11) * x(50)
+3.638379276093879e-05 x(11) * x(51)
+4.741124371828066e-05 x(11) * x(52)
+4.743157220378555e-05 x(11) * x(53)
+5.360837266369307e-05 x(11) * x(54)
+4.8569587282182705e-05 x(11) * x(55)
+4.1068388194872576e-05 x(11) * x(56)
+1.9737638033394727e-05 x(11) * x(57)
+5.2442706904923795e-05 x(11) * x(58)
+2.408177014008986e-05 x(11) * x(59)
+4.5682011753425416e-05 x(11) * x(60)
+4.929551125465866e-05 x(11) * x(61)
+3.383322040367193e-05 x(11) * x(62)
+3.9113636828909264e-05 x(11) * x(63)
+3.081491830305067e-05 x(11) * x(64)
+3.224735752747508e-05 x(11) * x(65)
+4.2940694075326034e-05 x(11) * x(66)
+3.7009696635787126e-05 x(11) * x(67)
+2.6014331038739398e-05 x(11) * x(68)
+8.214922600483112e-05 x(11) * x(69)
+0.0001447008771635297 x(12) ^ 2
+6.11065392694174e-05 x(12) * x(13)
+7.874244574841286e-05 x(12) * x(14)
+0.00012676372834471853 x(12) * x(15)
+6.862137010247462e-05 x(12) * x(16)
+0.00013276353653906986 x(12) * x(17)
+0.00012199166957622555 x(12) * x(18)
+4.6866727231491364e-05 x(12) * x(19)
+0.00011273039041669681 x(12) * x(20)
+0.00010161230681476064 x(12) * x(21)
+0.00014388976338856606 x(12) * x(22)
+7.17477627470132e-05 x(12) * x(23)
+8.066822896838037e-05 x(12) * x(24)
+6.640828866906447e-05 x(12) * x(25)
+8.980325554472391e-05 x(12) * x(26)
+7.939120770191071e-05 x(12) * x(27)
+9.360817695580949e-05 x(12) * x(28)
+5.7328577052998176e-05 x(12) * x(29)
+6.17902260667351e-05 x(12) * x(30)
+6.50840529234448e-05 x(12) * x(31)
+0.00010844640784594905 x(12) * x(32)
+9.382106860050098e-05 x(12) * x(33)
+8.332698396957302e-05 x(12) * x(34)
+6.47341514423601e-05 x(12) * x(35)
+8.463921729702562e-05 x(12) * x(36)
+0.00010920754888550049 x(12) * x(37)
+3.536237578443033e-05 x(12) * x(38)
+0.00011094740968728595 x(12) * x(39)
+0.00011233129787594602 x(12) * x(40)
+0.00014920077101850292 x(12) * x(41)
+0.00011803236365118649 x(12) * x(42)
+0.00014909431900642211 x(12) * x(43)
+0.00010514013690276504 x(12) * x(44)
+9.479793286583515e-05 x(12) * x(45)
+1.7174681714368077e-05 x(12) * x(46)
+1.8021306263032342e-05 x(12) * x(47)
+7.176218817315568e-05 x(12) * x(48)
+2.1797786793598476e-07 x(12) * x(49)
+5.3271218222635544e-05 x(12) * x(50)
+4.785757472821145e-05 x(12) * x(51)
+8.23709557734534e-05 x(12) * x(52)
+0.00011953116548610807 x(12) * x(53)
+0.00011995318196965729 x(12) * x(54)
+7.010800633103592e-05 x(12) * x(55)
+5.897665995828299e-05 x(12) * x(56)
+1.191618733747653e-05 x(12) * x(57)
+0.00011088046407960283 x(12) * x(58)
+1.7656839428115886e-05 x(12) * x(59)
+5.416473175183829e-05 x(12) * x(60)
+8.54737303232801e-05 x(12) * x(61)
+0.00010409817547329143 x(12) * x(62)
+8.19495501456187e-05 x(12) * x(63)
+5.625053096940907e-05 x(12) * x(64)
+4.891777375005033e-05 x(12) * x(65)
+8.573496812706131e-05 x(12) * x(66)
+5.951639664518771e-05 x(12) * x(67)
+4.692834577759878e-05 x(12) * x(68)
+0.00020384234923836894 x(12) * x(69)
+3.8148420639493406e-05 x(13) ^ 2
+4.771751509885197e-05 x(13) * x(14)
+6.286857108775277e-05 x(13) * x(15)
+3.0029113546943945e-05 x(13) * x(16)
+4.6456883842575554e-05 x(13) * x(17)
+5.605300073935753e-05 x(13) * x(18)
+3.588912014123786e-05 x(13) * x(19)
+5.73184847361238e-05 x(13) * x(20)
+5.337696619735537e-05 x(13) * x(21)
+7.47088622603173e-05 x(13) * x(22)
+4.44504246880619e-05 x(13) * x(23)
+4.5893457977386716e-05 x(13) * x(24)
+4.102160396821903e-05 x(13) * x(25)
+5.757664475882782e-05 x(13) * x(26)
+5.3901768550857325e-05 x(13) * x(27)
+4.279064411747174e-05 x(13) * x(28)
+3.31028641105049e-05 x(13) * x(29)
+1.9913760518367978e-05 x(13) * x(30)
+2.226979661144698e-05 x(13) * x(31)
+4.0255251907069064e-05 x(13) * x(32)
+4.811899542069023e-05 x(13) * x(33)
+4.598398745880144e-05 x(13) * x(34)
+4.523554204717477e-05 x(13) * x(35)
+4.313309663311502e-05 x(13) * x(36)
+5.962575995636641e-05 x(13) * x(37)
+2.5702961647653505e-05 x(13) * x(38)
+5.347486913397039e-05 x(13) * x(39)
+5.065396023288348e-05 x(13) * x(40)
+6.97491181283711e-05 x(13) * x(41)
+5.556804529060538e-05 x(13) * x(42)
+9.009648506749118e-05 x(13) * x(43)
+4.890024400437346e-05 x(13) * x(44)
+4.7322323241133226e-05 x(13) * x(45)
+1.2134716306511342e-05 x(13) * x(46)
+9.981506131466226e-06 x(13) * x(47)
+3.546327537795933e-05 x(13) * x(48)
-1.1454687614087794e-05 x(13) * x(49)
+1.8310922369648388e-05 x(13) * x(50)
+2.8798069702864887e-05 x(13) * x(51)
+4.6832088970774455e-05 x(13) * x(52)
+4.94544826959705e-05 x(13) * x(53)
+6.143326400058586e-05 x(13) * x(54)
+3.8957875714227383e-05 x(13) * x(55)
+4.44243258638333e-05 x(13) * x(56)
+2.1737618524713644e-05 x(13) * x(57)
+5.462611234887946e-05 x(13) * x(58)
+1.9386926184393123e-05 x(13) * x(59)
+4.5194804501967365e-05 x(13) * x(60)
+5.5124403889262024e-05 x(13) * x(61)
+3.751409410949224e-05 x(13) * x(62)
+3.8733327358023044e-05 x(13) * x(63)
+2.6442054648342206e-05 x(13) * x(64)
+1.7787188899300493e-05 x(13) * x(65)
+4.148190891564453e-05 x(13) * x(66)
+3.86633322449649e-05 x(13) * x(67)
+2.396449265679342e-05 x(13) * x(68)
+6.911720406778105e-05 x(13) * x(69)
+4.8762798561384314e-05 x(14) ^ 2
+8.873685547199084e-05 x(14) * x(15)
+4.612246770086432e-05 x(14) * x(16)
+6.617660522528446e-05 x(14) * x(17)
+7.863611181169369e-05 x(14) * x(18)
+3.8212700036507094e-05 x(14) * x(19)
+8.877328503121013e-05 x(14) * x(20)
+7.597596908836975e-05 x(14) * x(21)
+8.496970904491358e-05 x(14) * x(22)
+5.07944658008947e-05 x(14) * x(23)
+6.150131441306098e-05 x(14) * x(24)
+8.006519915681902e-05 x(14) * x(25)
+7.075405782901413e-05 x(14) * x(26)
+6.690253697396863e-05 x(14) * x(27)
+6.65328372692579e-05 x(14) * x(28)
+5.115970968442262e-05 x(14) * x(29)
+3.112212394276822e-05 x(14) * x(30)
+3.707148501667277e-05 x(14) * x(31)
+6.809609748087273e-05 x(14) * x(32)
+7.374063441746762e-05 x(14) * x(33)
+5.3244513938678345e-05 x(14) * x(34)
+5.277806706634567e-05 x(14) * x(35)
+6.235145119598156e-05 x(14) * x(36)
+7.557947491387323e-05 x(14) * x(37)
+3.0261862886551264e-05 x(14) * x(38)
+7.371308476724741e-05 x(14) * x(39)
+9.43026081450293e-05 x(14) * x(40)
+9.204316915895788e-05 x(14) * x(41)
+7.351248972843938e-05 x(14) * x(42)
+0.00013565338985771844 x(14) * x(43)
+9.253607844741344e-05 x(14) * x(44)
+6.819761744278169e-05 x(14) * x(45)
+1.7897079093827518e-05 x(14) * x(46)
+1.3516111139628192e-05 x(14) * x(47)
+4.536373421524872e-05 x(14) * x(48)
+1.2100864295373632e-05 x(14) * x(49)
+3.530168283283063e-05 x(14) * x(50)
+4.172294940255971e-05 x(14) * x(51)
+6.270512575394994e-05 x(14) * x(52)
+7.824861273801029e-05 x(14) * x(53)
+8.246261605553777e-05 x(14) * x(54)
+4.7189885196824056e-05 x(14) * x(55)
+5.336249485228112e-05 x(14) * x(56)
+2.1625762795145205e-05 x(14) * x(57)
+6.528026961481729e-05 x(14) * x(58)
+2.006306384847633e-05 x(14) * x(59)
+4.5982194057248726e-05 x(14) * x(60)
+7.640975540562319e-05 x(14) * x(61)
+5.385520786810786e-05 x(14) * x(62)
+4.8509756162545074e-05 x(14) * x(63)
+3.798471949953101e-05 x(14) * x(64)
+2.1765939707930958e-05 x(14) * x(65)
+5.238030786371213e-05 x(14) * x(66)
+4.3758445870427266e-05 x(14) * x(67)
+3.212189774063421e-05 x(14) * x(68)
+9.433557541700717e-05 x(14) * x(69)
+0.00012769520997149976 x(15) ^ 2
+7.168835295337292e-05 x(15) * x(16)
+0.00013235481411104298 x(15) * x(17)
+0.00014992676471653035 x(15) * x(18)
+5.450354293710323e-05 x(15) * x(19)
+0.00014832782279327442 x(15) * x(20)
+0.00010428593001835995 x(15) * x(21)
+0.00013225266705590907 x(15) * x(22)
+7.584611845830444e-05 x(15) * x(23)
+0.00010094567069616582 x(15) * x(24)
+7.286749422831208e-05 x(15) * x(25)
+0.0001154981775058733 x(15) * x(26)
+9.913661749696652e-05 x(15) * x(27)
+8.348925682444222e-05 x(15) * x(28)
+7.62864118807687e-05 x(15) * x(29)
+6.555183187754104e-05 x(15) * x(30)
+7.546135181900016e-05 x(15) * x(31)
+9.366071277258643e-05 x(15) * x(32)
+0.000108785658484298 x(15) * x(33)
+9.30845200881871e-05 x(15) * x(34)
+7.371784621594817e-05 x(15) * x(35)
+0.00010204694339204664 x(15) * x(36)
+0.00011867866728644414 x(15) * x(37)
+4.40642918682295e-05 x(15) * x(38)
+0.00012741433384844572 x(15) * x(39)
+0.00013027844101999228 x(15) * x(40)
+0.00021475743721709642 x(15) * x(41)
+0.00010682167899088974 x(15) * x(42)
+0.00021325663797307218 x(15) * x(43)
+0.00013015658240297438 x(15) * x(44)
+0.00010811013096342102 x(15) * x(45)
+4.322464044688778e-05 x(15) * x(46)
+4.0638742882499534e-05 x(15) * x(47)
+8.801734759668255e-05 x(15) * x(48)
+1.6102353693991754e-05 x(15) * x(49)
+3.943648748171688e-05 x(15) * x(50)
+8.757157710357494e-05 x(15) * x(51)
+0.0001392377628411079 x(15) * x(52)
+0.00014589146677194408 x(15) * x(53)
+0.00014509357304114373 x(15) * x(54)
+7.932282056863695e-05 x(15) * x(55)
+6.934078463560482e-05 x(15) * x(56)
+3.300628504554428e-05 x(15) * x(57)
+0.000132263134769981 x(15) * x(58)
+3.616447154641434e-05 x(15) * x(59)
+7.204125775080877e-05 x(15) * x(60)
+0.00012795481966617226 x(15) * x(61)
+8.400765333622363e-05 x(15) * x(62)
+9.932241675638476e-05 x(15) * x(63)
+7.890144724383819e-05 x(15) * x(64)
+5.699475212094849e-05 x(15) * x(65)
+8.635156156046499e-05 x(15) * x(66)
+7.23617732335147e-05 x(15) * x(67)
+5.3391034752904104e-05 x(15) * x(68)
+0.00015182423391851916 x(15) * x(69)
+4.9068647489423255e-05 x(16) ^ 2
+5.936764811771194e-05 x(16) * x(17)
+5.937594836354478e-05 x(16) * x(18)
+2.820751518275529e-05 x(16) * x(19)
+8.099406903236316e-05 x(16) * x(20)
+5.175872004935297e-05 x(16) * x(21)
+7.754191558263619e-05 x(16) * x(22)
+3.893481749400262e-05 x(16) * x(23)
+4.324010509884034e-05 x(16) * x(24)
+4.1495637237050774e-05 x(16) * x(25)
+4.922508592343065e-05 x(16) * x(26)
+4.635891418341945e-05 x(16) * x(27)
+5.295877807815214e-05 x(16) * x(28)
+4.550168834339885e-05 x(16) * x(29)
+3.206327532036401e-05 x(16) * x(30)
+3.727454473555695e-05 x(16) * x(31)
+4.765252749054348e-05 x(16) * x(32)
+5.7153705182774967e-05 x(16) * x(33)
+4.876480645672387e-05 x(16) * x(34)
+3.8144051246467044e-05 x(16) * x(35)
+4.570008927177935e-05 x(16) * x(36)
+5.81589311028505e-05 x(16) * x(37)
+3.39963819140644e-05 x(16) * x(38)
+5.76429478408178e-05 x(16) * x(39)
+6.76944692150475e-05 x(16) * x(40)
+8.832921197769645e-05 x(16) * x(41)
+5.9682654278278544e-05 x(16) * x(42)
+9.255921906543676e-05 x(16) * x(43)
+7.110655700241574e-05 x(16) * x(44)
+4.954675076651737e-05 x(16) * x(45)
+1.5388055772993204e-05 x(16) * x(46)
+1.1801502465548692e-05 x(16) * x(47)
+2.9783283423284153e-05 x(16) * x(48)
-3.53334582710465e-06 x(16) * x(49)
+2.9694120834307187e-05 x(16) * x(50)
+4.2722441232272184e-05 x(16) * x(51)
+5.1724658915690776e-05 x(16) * x(52)
+5.086746060854024e-05 x(16) * x(53)
+7.214780248252735e-05 x(16) * x(54)
+5.159922534346508e-05 x(16) * x(55)
+5.843842379902359e-05 x(16) * x(56)
+1.6146730944738046e-05 x(16) * x(57)
+6.442153853652348e-05 x(16) * x(58)
+2.1421144290349993e-05 x(16) * x(59)
+3.769493826074585e-05 x(16) * x(60)
+5.960583271022298e-05 x(16) * x(61)
+4.149702186759026e-05 x(16) * x(62)
+4.457953945969737e-05 x(16) * x(63)
+2.1142166817948905e-05 x(16) * x(64)
+2.9756372266511313e-05 x(16) * x(65)
+5.267506889202372e-05 x(16) * x(66)
+3.749200163803689e-05 x(16) * x(67)
+3.2490586296938125e-05 x(16) * x(68)
+7.403411727066272e-05 x(16) * x(69)
+0.00018762386686117547 x(17) ^ 2
+0.00013137562634688395 x(17) * x(18)
+2.1570852071703198e-05 x(17) * x(19)
+0.00012515133804343715 x(17) * x(20)
+9.448766898217653e-05 x(17) * x(21)
+0.00013823037128077848 x(17) * x(22)
+5.578521433996515e-05 x(17) * x(23)
+0.00011840914380965716 x(17) * x(24)
+7.032806474484686e-05 x(17) * x(25)
+7.25950941839342e-05 x(17) * x(26)
+7.056144899859842e-05 x(17) * x(27)
+9.955016390667798e-05 x(17) * x(28)
+6.393851620385872e-05 x(17) * x(29)
+0.00011227017289030274 x(17) * x(30)
+0.00011859067259195036 x(17) * x(31)
+7.277511627695109e-05 x(17) * x(32)
+7.983711705779701e-05 x(17) * x(33)
+5.06263355928957e-05 x(17) * x(34)
+6.13102405729895e-05 x(17) * x(35)
+8.139637323467471e-05 x(17) * x(36)
+0.0001037939904484073 x(17) * x(37)
+6.246978891994183e-05 x(17) * x(38)
+8.118783251687073e-05 x(17) * x(39)
+0.0001067907570567353 x(17) * x(40)
+0.0001517507572427328 x(17) * x(41)
+0.00010164036868375086 x(17) * x(42)
+0.00016921520748566413 x(17) * x(43)
+0.00010993735974368622 x(17) * x(44)
+8.135403260594306e-05 x(17) * x(45)
+1.7431159451378092e-05 x(17) * x(46)
+1.6244477489505213e-05 x(17) * x(47)
+7.262608852414582e-05 x(17) * x(48)
+6.706028781216601e-06 x(17) * x(49)
+4.77080856767601e-05 x(17) * x(50)
+4.746715784653899e-05 x(17) * x(51)
+8.834230765329778e-05 x(17) * x(52)
+0.0001378748612462394 x(17) * x(53)
+0.00012740833719352093 x(17) * x(54)
+9.16926704086829e-05 x(17) * x(55)
+6.026571605801631e-05 x(17) * x(56)
+8.301860081147955e-06 x(17) * x(57)
+0.00010438929273616638 x(17) * x(58)
+4.642712648973759e-05 x(17) * x(59)
+5.952546496612591e-05 x(17) * x(60)
+5.5792681905964275e-05 x(17) * x(61)
+7.745175635627134e-05 x(17) * x(62)
+5.383294438405137e-05 x(17) * x(63)
+0.00019429471737383776 x(17) * x(64)
+0.00010500330492515217 x(17) * x(65)
+7.080255011460421e-05 x(17) * x(66)
+3.366235242058238e-05 x(17) * x(67)
+4.5758518782847625e-05 x(17) * x(68)
+0.00018233986893933217 x(17) * x(69)
+0.0002669672719738688 x(18) ^ 2
+3.87194168191238e-05 x(18) * x(19)
+0.00011434329693083184 x(18) * x(20)
+0.00010021795789035889 x(18) * x(21)
+8.543679082951156e-05 x(18) * x(22)
+4.921186347197654e-05 x(18) * x(23)
+0.00010739260505620703 x(18) * x(24)
+5.353525597822547e-05 x(18) * x(25)
+8.408377890452081e-05 x(18) * x(26)
+8.56112222268311e-05 x(18) * x(27)
+9.772393552713483e-05 x(18) * x(28)
+5.961490666445902e-05 x(18) * x(29)
+6.47390343081011e-05 x(18) * x(30)
+7.289230088165937e-05 x(18) * x(31)
+8.400873125711054e-05 x(18) * x(32)
+0.00010356837154372513 x(18) * x(33)
+8.607982687697398e-05 x(18) * x(34)
+5.743151879886989e-05 x(18) * x(35)
+7.846072750194468e-05 x(18) * x(36)
+8.360785740407912e-05 x(18) * x(37)
+6.06333678324189e-05 x(18) * x(38)
+8.99843886480135e-05 x(18) * x(39)
+9.914379754569089e-05 x(18) * x(40)
+0.00019211962526625553 x(18) * x(41)
+9.150854993872657e-05 x(18) * x(42)
+0.00022658219096574186 x(18) * x(43)
+0.0001396076331409823 x(18) * x(44)
+0.0001047551833657241 x(18) * x(45)
+3.409973403290669e-05 x(18) * x(46)
+2.7080313500521646e-05 x(18) * x(47)
+5.890425498507737e-05 x(18) * x(48)
+1.385756025136973e-05 x(18) * x(49)
+6.629726588622133e-06 x(18) * x(50)
+7.939333571862161e-05 x(18) * x(51)
+9.189589370621892e-05 x(18) * x(52)
+8.469577942038972e-05 x(18) * x(53)
+0.00013499139398457662 x(18) * x(54)
+8.664934877464105e-05 x(18) * x(55)
+3.9959240648194116e-05 x(18) * x(56)
+4.086010612794062e-05 x(18) * x(57)
+0.0001196044082070978 x(18) * x(58)
+7.426714427327484e-05 x(18) * x(59)
+5.3511741993237085e-05 x(18) * x(60)
+0.00011622137472982575 x(18) * x(61)
+5.6001005294595194e-05 x(18) * x(62)
+9.401800212083078e-05 x(18) * x(63)
+6.528348622407492e-05 x(18) * x(64)
+2.7344967366140945e-05 x(18) * x(65)
+7.682129440692999e-05 x(18) * x(66)
+5.154169493536782e-05 x(18) * x(67)
+2.8026190047907237e-05 x(18) * x(68)
+0.0001702907598798658 x(18) * x(69)
+3.123479625016085e-05 x(19) ^ 2
+5.4854283350798906e-05 x(19) * x(20)
+4.968128496502527e-05 x(19) * x(21)
+4.941181972377715e-05 x(19) * x(22)
+4.091430778515239e-05 x(19) * x(23)
+3.8402840046148795e-05 x(19) * x(24)
+1.7694937076129295e-05 x(19) * x(25)
+4.219080258990085e-05 x(19) * x(26)
+3.81814274254839e-05 x(19) * x(27)
+3.539579066743992e-05 x(19) * x(28)
+3.1949299439791764e-05 x(19) * x(29)
+1.6093279936943163e-05 x(19) * x(30)
+2.114735101725236e-05 x(19) * x(31)
+4.6764547006678534e-05 x(19) * x(32)
+4.239110983523152e-05 x(19) * x(33)
+5.4530847604546285e-05 x(19) * x(34)
+3.899362398069117e-05 x(19) * x(35)
+4.0488500306036294e-05 x(19) * x(36)
+4.3734903021756165e-05 x(19) * x(37)
+1.694509916484716e-05 x(19) * x(38)
+4.664112310148295e-05 x(19) * x(39)
+5.341365338873125e-05 x(19) * x(40)
+6.431498394595937e-05 x(19) * x(41)
+4.33162215243855e-05 x(19) * x(42)
+6.662160243905219e-05 x(19) * x(43)
+4.529873751037016e-05 x(19) * x(44)
+4.0633932562139424e-05 x(19) * x(45)
+1.4265098055876778e-05 x(19) * x(46)
+1.2890563584867318e-05 x(19) * x(47)
+4.140026611212226e-05 x(19) * x(48)
-1.54064039206574e-05 x(19) * x(49)
+3.421780691675451e-05 x(19) * x(50)
+3.2496297706717665e-05 x(19) * x(51)
+3.607321722888207e-05 x(19) * x(52)
+3.4048955590243324e-05 x(19) * x(53)
+4.865554504619806e-05 x(19) * x(54)
+2.3579693320862563e-05 x(19) * x(55)
+3.0648893183606404e-05 x(19) * x(56)
+1.6878092950489245e-05 x(19) * x(57)
+4.550870428599281e-05 x(19) * x(58)
+1.2197060774593154e-05 x(19) * x(59)
+3.360535567906586e-05 x(19) * x(60)
+4.8098377463892844e-05 x(19) * x(61)
+2.9598028556450075e-05 x(19) * x(62)
+3.101811726827962e-05 x(19) * x(63)
+2.019567285985046e-05 x(19) * x(64)
+1.623300808783084e-05 x(19) * x(65)
+3.703179121601606e-05 x(19) * x(66)
+3.069735389735618e-05 x(19) * x(67)
+2.143982472120615e-05 x(19) * x(68)
+3.530902826115719e-05 x(19) * x(69)
+0.00010771465506716699 x(20) ^ 2
+0.00014495376315884443 x(20) * x(21)
+0.00014895735943898562 x(20) * x(22)
+6.722539052828118e-05 x(20) * x(23)
+7.972881092614692e-05 x(20) * x(24)
+6.604302618636886e-05 x(20) * x(25)
+9.880823584180504e-05 x(20) * x(26)
+9.621762065238293e-05 x(20) * x(27)
+0.00011428088685115741 x(20) * x(28)
+9.11615012382585e-05 x(20) * x(29)
+5.682707537430561e-05 x(20) * x(30)
+6.870801708471981e-05 x(20) * x(31)
+9.613314443494675e-05 x(20) * x(32)
+0.00011856830317932683 x(20) * x(33)
+9.165524261967849e-05 x(20) * x(34)
+8.50325842679928e-05 x(20) * x(35)
+9.80790351770127e-05 x(20) * x(36)
+0.00013163430902976274 x(20) * x(37)
+3.2505215749005177e-05 x(20) * x(38)
+0.00010132734996904749 x(20) * x(39)
+0.00016623120364297144 x(20) * x(40)
+0.00015883368830219363 x(20) * x(41)
+0.00010239143007067558 x(20) * x(42)
+0.00021083901060511368 x(20) * x(43)
+0.00016246328582627859 x(20) * x(44)
+0.00010790560277286861 x(20) * x(45)
+4.033013796726995e-05 x(20) * x(46)
+3.326540830184725e-05 x(20) * x(47)
+8.884801079021441e-05 x(20) * x(48)
+2.396067363204354e-06 x(20) * x(49)
+4.410007421372443e-05 x(20) * x(50)
+0.00010110457539591845 x(20) * x(51)
+8.945644156694449e-05 x(20) * x(52)
+0.0001226842408842664 x(20) * x(53)
+0.00014833122619762432 x(20) * x(54)
+6.814843724404089e-05 x(20) * x(55)
+7.847815378244014e-05 x(20) * x(56)
+2.9081223735984673e-05 x(20) * x(57)
+0.00012754359593828752 x(20) * x(58)
+7.623220362578952e-06 x(20) * x(59)
+7.037251920203363e-05 x(20) * x(60)
+0.0001596995935108795 x(20) * x(61)
+8.720254512989234e-05 x(20) * x(62)
+9.732080270175157e-05 x(20) * x(63)
+6.463987588772166e-05 x(20) * x(64)
+4.846316381947151e-05 x(20) * x(65)
+9.437202608230325e-05 x(20) * x(66)
+6.520102725129963e-05 x(20) * x(67)
+4.563373288344102e-05 x(20) * x(68)
+0.00013897337724856068 x(20) * x(69)
+9.71668339664812e-05 x(21) ^ 2
+0.00011581082735604062 x(21) * x(22)
+6.045175217397143e-05 x(21) * x(23)
+6.122459551650446e-05 x(21) * x(24)
+8.060084772040965e-05 x(21) * x(25)
+8.179054623197715e-05 x(21) * x(26)
+8.368557706677095e-05 x(21) * x(27)
+0.00011196025667351768 x(21) * x(28)
+7.139779169183306e-05 x(21) * x(29)
+3.895364301535741e-05 x(21) * x(30)
+4.53425664368704e-05 x(21) * x(31)
+8.66797747596108e-05 x(21) * x(32)
+9.680027948177306e-05 x(21) * x(33)
+7.280079588891687e-05 x(21) * x(34)
+7.178159390171586e-05 x(21) * x(35)
+8.465035582172805e-05 x(21) * x(36)
+0.00010758104815111416 x(21) * x(37)
+2.3934380410826427e-05 x(21) * x(38)
+9.162925691678331e-05 x(21) * x(39)
+0.00015596201238666425 x(21) * x(40)
+0.00013359026476303116 x(21) * x(41)
+9.035451370397841e-05 x(21) * x(42)
+0.00015980939169636617 x(21) * x(43)
+0.00014354901069330117 x(21) * x(44)
+9.743559719590122e-05 x(21) * x(45)
+1.471462282539047e-05 x(21) * x(46)
+1.3544031837459875e-05 x(21) * x(47)
+7.7392980475342e-05 x(21) * x(48)
+2.5748871625911124e-06 x(21) * x(49)
+4.756738981318351e-05 x(21) * x(50)
+7.050607686567324e-05 x(21) * x(51)
+6.695889407691898e-05 x(21) * x(52)
+9.246995382983888e-05 x(21) * x(53)
+0.00012863488684094018 x(21) * x(54)
+5.0078941036768045e-05 x(21) * x(55)
+6.258266381232045e-05 x(21) * x(56)
+8.94452623810536e-06 x(21) * x(57)
+0.00010837317129375724 x(21) * x(58)
+1.5628641108259445e-06 x(21) * x(59)
+6.680093289959337e-05 x(21) * x(60)
+0.00016006026331946674 x(21) * x(61)
+8.555226590604744e-05 x(21) * x(62)
+7.706940387954045e-05 x(21) * x(63)
+4.995868869862414e-05 x(21) * x(64)
+1.7377296854084984e-05 x(21) * x(65)
+8.012894378741243e-05 x(21) * x(66)
+5.202427712002786e-05 x(21) * x(67)
+1.9785044977639432e-05 x(21) * x(68)
+0.00011980061241568293 x(21) * x(69)
+0.00010762901473306038 x(22) ^ 2
+7.842751974996247e-05 x(22) * x(23)
+8.348072736712823e-05 x(22) * x(24)
+8.026402831915882e-05 x(22) * x(25)
+9.959657626682537e-05 x(22) * x(26)
+9.571371327373035e-05 x(22) * x(27)
+0.00010539630357267457 x(22) * x(28)
+8.946364254431103e-05 x(22) * x(29)
+6.10391193526316e-05 x(22) * x(30)
+6.580140068435251e-05 x(22) * x(31)
+9.575330407099045e-05 x(22) * x(32)
+0.00010569518592470713 x(22) * x(33)
+8.579041430258867e-05 x(22) * x(34)
+8.033291958802959e-05 x(22) * x(35)
+8.640603295089707e-05 x(22) * x(36)
+0.00012299222714054478 x(22) * x(37)
+4.6275299545661096e-05 x(22) * x(38)
+9.873625085205862e-05 x(22) * x(39)
+0.00015192221483227686 x(22) * x(40)
+0.00016039891789259843 x(22) * x(41)
+0.00011250319109050288 x(22) * x(42)
+0.0001971495431547248 x(22) * x(43)
+0.00014429470082893606 x(22) * x(44)
+9.738826673268071e-05 x(22) * x(45)
+2.4180982819035895e-05 x(22) * x(46)
+2.1740515029661953e-05 x(22) * x(47)
+7.821983723201099e-05 x(22) * x(48)
+4.939698866551906e-06 x(22) * x(49)
+5.00333438268569e-05 x(22) * x(50)
+7.234610270612744e-05 x(22) * x(51)
+9.164876272363311e-05 x(22) * x(52)
+0.0001230053109445862 x(22) * x(53)
+0.0001377025168473066 x(22) * x(54)
+7.62983390120926e-05 x(22) * x(55)
+7.694665034885644e-05 x(22) * x(56)
+1.6571378920207766e-05 x(22) * x(57)
+0.0001242351873175341 x(22) * x(58)
+2.6705385824708753e-05 x(22) * x(59)
+8.407806477035548e-05 x(22) * x(60)
+0.00012328071037791862 x(22) * x(61)
+9.675808462428936e-05 x(22) * x(62)
+7.747910566717876e-05 x(22) * x(63)
+7.685193319037247e-05 x(22) * x(64)
+5.055451632147577e-05 x(22) * x(65)
+9.744808565873516e-05 x(22) * x(66)
+6.179094610589751e-05 x(22) * x(67)
+4.127793517300955e-05 x(22) * x(68)
+0.0001602798138598377 x(22) * x(69)
+3.9989530879022626e-05 x(23) ^ 2
+3.0313388250215647e-05 x(23) * x(24)
+4.79446421327345e-05 x(23) * x(25)
+5.88664063450786e-05 x(23) * x(26)
+5.8662093491467926e-05 x(23) * x(27)
+4.515778601678951e-05 x(23) * x(28)
+4.779020997714806e-05 x(23) * x(29)
+3.105905365225452e-05 x(23) * x(30)
+3.5717304964196376e-05 x(23) * x(31)
+5.007165497481776e-05 x(23) * x(32)
+5.674394934833755e-05 x(23) * x(33)
+6.340255983465194e-05 x(23) * x(34)
+4.988314516321628e-05 x(23) * x(35)
+4.906945791297351e-05 x(23) * x(36)
+6.0308253499135724e-05 x(23) * x(37)
+3.028121418524308e-05 x(23) * x(38)
+6.281765867194272e-05 x(23) * x(39)
+6.876269055928593e-05 x(23) * x(40)
+7.64107005452401e-05 x(23) * x(41)
+6.252023297911279e-05 x(23) * x(42)
+9.679787135244205e-05 x(23) * x(43)
+5.278841983568737e-05 x(23) * x(44)
+5.5845848971556865e-05 x(23) * x(45)
+1.8721708280887983e-05 x(23) * x(46)
+1.535240115710238e-05 x(23) * x(47)
+3.2082684875837414e-05 x(23) * x(48)
+7.900069815429285e-06 x(23) * x(49)
+3.533053978368652e-05 x(23) * x(50)
+4.002922022813293e-05 x(23) * x(51)
+5.166019815920702e-05 x(23) * x(52)
+5.259253202072021e-05 x(23) * x(53)
+7.344385852869765e-05 x(23) * x(54)
+4.333841470208818e-05 x(23) * x(55)
+4.7173378902545695e-05 x(23) * x(56)
+1.590658565698413e-05 x(23) * x(57)
+6.100256816129126e-05 x(23) * x(58)
+2.7795316494631247e-05 x(23) * x(59)
+5.361500154851044e-05 x(23) * x(60)
+7.115600345400413e-05 x(23) * x(61)
+4.426037423535568e-05 x(23) * x(62)
+4.785073922858338e-05 x(23) * x(63)
+3.0846750558993716e-05 x(23) * x(64)
+2.911520391431416e-05 x(23) * x(65)
+4.7764264181187274e-05 x(23) * x(66)
+4.4452952840965675e-05 x(23) * x(67)
+3.2921988174081386e-05 x(23) * x(68)
+7.088479544605642e-05 x(23) * x(69)
+9.532037856295327e-05 x(24) ^ 2
+4.1466235872213274e-05 x(24) * x(25)
+5.0627889057111596e-05 x(24) * x(26)
+4.89831705645956e-05 x(24) * x(27)
+5.92128075708132e-05 x(24) * x(28)
+4.9748045293109966e-05 x(24) * x(29)
+4.612203732626174e-05 x(24) * x(30)
+4.847389463407314e-05 x(24) * x(31)
+4.60342009488449e-05 x(24) * x(32)
+6.51320429326558e-05 x(24) * x(33)
+4.829878758273148e-05 x(24) * x(34)
+4.520831688829361e-05 x(24) * x(35)
+5.6433152375771316e-05 x(24) * x(36)
+7.354519573278064e-05 x(24) * x(37)
+2.717683577001237e-05 x(24) * x(38)
+6.074404228880754e-05 x(24) * x(39)
+9.451824663665247e-05 x(24) * x(40)
+0.00010507415105770929 x(24) * x(41)
+6.697496902324137e-05 x(24) * x(42)
+0.00012449027884489696 x(24) * x(43)
+7.38667095765506e-05 x(24) * x(44)
+6.616576331479076e-05 x(24) * x(45)
-4.461542514740863e-06 x(24) * x(46)
-3.0414364157421257e-06 x(24) * x(47)
+7.163986189482535e-05 x(24) * x(48)
-2.9844806826903632e-05 x(24) * x(49)
+2.178028147765701e-05 x(24) * x(50)
+4.311962160249315e-05 x(24) * x(51)
+5.286570061898564e-05 x(24) * x(52)
+8.139767626514543e-05 x(24) * x(53)
+7.764476301644413e-05 x(24) * x(54)
+6.293061261138035e-05 x(24) * x(55)
+4.025707020868286e-05 x(24) * x(56)
+7.025319594483106e-06 x(24) * x(57)
+6.530963489726598e-05 x(24) * x(58)
+2.4235678056258565e-05 x(24) * x(59)
+4.001563663291338e-05 x(24) * x(60)
+3.262898086277615e-05 x(24) * x(61)
+6.511796932459049e-05 x(24) * x(62)
+3.677866248630404e-05 x(24) * x(63)
+6.32351960503541e-05 x(24) * x(64)
+2.9414771438917778e-05 x(24) * x(65)
+5.3039977641907017e-05 x(24) * x(66)
+2.9328293546686197e-05 x(24) * x(67)
+3.4228121791332185e-05 x(24) * x(68)
+0.00010855497339954847 x(24) * x(69)
+0.00010352102721534943 x(25) ^ 2
+5.077561408051774e-05 x(25) * x(26)
+6.120871487469728e-05 x(25) * x(27)
+6.18842779564286e-05 x(25) * x(28)
+5.094154636644755e-05 x(25) * x(29)
+2.291642163401184e-05 x(25) * x(30)
+2.374098904998478e-05 x(25) * x(31)
+5.1972300754782207e-05 x(25) * x(32)
+5.6802540928817705e-05 x(25) * x(33)
+4.321593001063159e-05 x(25) * x(34)
+4.091905078253256e-05 x(25) * x(35)
+5.6276064235900915e-05 x(25) * x(36)
+6.870822316900543e-05 x(25) * x(37)
+2.14027581349329e-05 x(25) * x(38)
+7.121252559537017e-05 x(25) * x(39)
+8.49576903696069e-05 x(25) * x(40)
+8.239771068358515e-05 x(25) * x(41)
+6.943775494409443e-05 x(25) * x(42)
+0.00010919379395567786 x(25) * x(43)
+4.9195205387422163e-05 x(25) * x(44)
+5.314743925207998e-05 x(25) * x(45)
+1.662880638333337e-05 x(25) * x(46)
+1.1741466443102733e-05 x(25) * x(47)
+1.7541047068341988e-05 x(25) * x(48)
+3.328918528846478e-05 x(25) * x(49)
+2.90817675787248e-05 x(25) * x(50)
+3.526522235957887e-05 x(25) * x(51)
+3.983104053272209e-05 x(25) * x(52)
+5.4826349172930614e-05 x(25) * x(53)
+7.457031407854396e-05 x(25) * x(54)
+4.068317915617513e-05 x(25) * x(55)
+4.324317056900108e-05 x(25) * x(56)
+6.59466078610282e-06 x(25) * x(57)
+6.377807493421844e-05 x(25) * x(58)
+1.3535906974006063e-05 x(25) * x(59)
+3.311921090766503e-05 x(25) * x(60)
+8.13453472970512e-05 x(25) * x(61)
+4.561101918539498e-05 x(25) * x(62)
+4.894554745984991e-05 x(25) * x(63)
+4.024960991896997e-05 x(25) * x(64)
+1.0891716216250185e-05 x(25) * x(65)
+5.240071822228876e-05 x(25) * x(66)
+2.9932412513261276e-05 x(25) * x(67)
+2.997931333209259e-05 x(25) * x(68)
+6.801250630993424e-05 x(25) * x(69)
+4.8591451541566666e-05 x(26) ^ 2
+8.115733859948666e-05 x(26) * x(27)
+6.73216352100843e-05 x(26) * x(28)
+5.648561016089884e-05 x(26) * x(29)
+4.1878254837063996e-05 x(26) * x(30)
+4.6946137011497506e-05 x(26) * x(31)
+7.352224080243742e-05 x(26) * x(32)
+8.055152490979211e-05 x(26) * x(33)
+6.061005671465432e-05 x(26) * x(34)
+5.5302774268881445e-05 x(26) * x(35)
+6.854721222308258e-05 x(26) * x(36)
+8.848922352958758e-05 x(26) * x(37)
+3.0918782555479054e-05 x(26) * x(38)
+8.145876053084157e-05 x(26) * x(39)
+9.84735563031715e-05 x(26) * x(40)
+0.00012007131417398778 x(26) * x(41)
+7.661468464655498e-05 x(26) * x(42)
+0.00013981534277175697 x(26) * x(43)
+9.714657446250765e-05 x(26) * x(44)
+7.511418957454958e-05 x(26) * x(45)
+2.0885194931759852e-05 x(26) * x(46)
+1.87014597887097e-05 x(26) * x(47)
+5.515465719989251e-05 x(26) * x(48)
+2.577462468023795e-07 x(26) * x(49)
+3.240745072541755e-05 x(26) * x(50)
+5.973638691399672e-05 x(26) * x(51)
+7.821376306204801e-05 x(26) * x(52)
+8.473105379983747e-05 x(26) * x(53)
+9.998868740925713e-05 x(26) * x(54)
+5.645871799321143e-05 x(26) * x(55)
+6.007330844970813e-05 x(26) * x(56)
+2.4426946329379672e-05 x(26) * x(57)
+8.64788621585068e-05 x(26) * x(58)
+1.9763691023650014e-05 x(26) * x(59)
+5.6160598448670635e-05 x(26) * x(60)
+8.839466663493637e-05 x(26) * x(61)
+5.969717276842608e-05 x(26) * x(62)
+6.557504502093691e-05 x(26) * x(63)
+4.0700803195491894e-05 x(26) * x(64)
+3.7111549550221794e-05 x(26) * x(65)
+6.046183852967355e-05 x(26) * x(66)
+5.57874866182547e-05 x(26) * x(67)
+3.3731489653149e-05 x(26) * x(68)
+9.893007972980227e-05 x(26) * x(69)
+4.34373148136563e-05 x(27) ^ 2
+6.760310812137051e-05 x(27) * x(28)
+5.574181240118292e-05 x(27) * x(29)
+3.481433181625471e-05 x(27) * x(30)
+3.713449314662811e-05 x(27) * x(31)
+6.772621498603864e-05 x(27) * x(32)
+7.378802780475973e-05 x(27) * x(33)
+6.112169172701456e-05 x(27) * x(34)
+5.657424651764844e-05 x(27) * x(35)
+6.64776761665957e-05 x(27) * x(36)
+7.82369933890108e-05 x(27) * x(37)
+2.8920617120916188e-05 x(27) * x(38)
+7.26333817623791e-05 x(27) * x(39)
+0.00010097219735563666 x(27) * x(40)
+0.00011096560564585013 x(27) * x(41)
+7.45885339824702e-05 x(27) * x(42)
+0.00014302528129501657 x(27) * x(43)
+9.503552579072881e-05 x(27) * x(44)
+7.178714664100939e-05 x(27) * x(45)
+1.4900590134237616e-05 x(27) * x(46)
+1.2982048678548451e-05 x(27) * x(47)
+4.6048055042011595e-05 x(27) * x(48)
-1.3927278995733636e-07 x(27) * x(49)
+3.413213531161342e-05 x(27) * x(50)
+5.665496820886954e-05 x(27) * x(51)
+6.499543449367916e-05 x(27) * x(52)
+7.23039969426697e-05 x(27) * x(53)
+9.38213772098901e-05 x(27) * x(54)
+5.5333014945552934e-05 x(27) * x(55)
+6.245164942692413e-05 x(27) * x(56)
+1.9094679227219818e-05 x(27) * x(57)
+8.11275172328654e-05 x(27) * x(58)
+1.7259672821644907e-05 x(27) * x(59)
+5.546262856772154e-05 x(27) * x(60)
+8.871038062103783e-05 x(27) * x(61)
+5.587205215758304e-05 x(27) * x(62)
+6.112415290356235e-05 x(27) * x(63)
+3.5436788334265025e-05 x(27) * x(64)
+3.0282714175014163e-05 x(27) * x(65)
+6.352022127772249e-05 x(27) * x(66)
+5.229966293662813e-05 x(27) * x(67)
+3.203079474312464e-05 x(27) * x(68)
+9.655601327925754e-05 x(27) * x(69)
+7.538851980689262e-05 x(28) ^ 2
+5.605298223232369e-05 x(28) * x(29)
+4.0427174941620975e-05 x(28) * x(30)
+4.2791313425685204e-05 x(28) * x(31)
+7.455435820434298e-05 x(28) * x(32)
+8.05660685610649e-05 x(28) * x(33)
+5.088309368553714e-05 x(28) * x(34)
+5.0780932781708284e-05 x(28) * x(35)
+7.21684088888072e-05 x(28) * x(36)
+8.383596514443993e-05 x(28) * x(37)
+3.562145470498552e-05 x(28) * x(38)
+7.49940823206029e-05 x(28) * x(39)
+0.00012505586554366766 x(28) * x(40)
+0.00011266844027615717 x(28) * x(41)
+7.668181668626219e-05 x(28) * x(42)
+0.0001323664259781007 x(28) * x(43)
+0.00012925886215389956 x(28) * x(44)
+7.960728560808782e-05 x(28) * x(45)
+2.051150157690927e-05 x(28) * x(46)
+1.8519071771173724e-05 x(28) * x(47)
+5.6343398303404316e-05 x(28) * x(48)
-5.8179089790834415e-06 x(28) * x(49)
+3.207203616517104e-05 x(28) * x(50)
+6.184498408647401e-05 x(28) * x(51)
+5.010181372835829e-05 x(28) * x(52)
+7.500820741130051e-05 x(28) * x(53)
+0.00010050787452303634 x(28) * x(54)
+5.418261071460737e-05 x(28) * x(55)
+5.504165777369714e-05 x(28) * x(56)
+9.229530612013755e-06 x(28) * x(57)
+8.735477230573433e-05 x(28) * x(58)
+1.4617573003459884e-05 x(28) * x(59)
+5.230459926471694e-05 x(28) * x(60)
+0.00011266072808975352 x(28) * x(61)
+6.363976731431963e-05 x(28) * x(62)
+5.557989504328204e-05 x(28) * x(63)
+5.863921425063415e-05 x(28) * x(64)
+2.6271924242515816e-05 x(28) * x(65)
+6.427539296444217e-05 x(28) * x(66)
+4.029625345382164e-05 x(28) * x(67)
+2.0899527839055485e-05 x(28) * x(68)
+0.00011733567737432835 x(28) * x(69)
+4.730916406479622e-05 x(29) ^ 2
+3.555273948295502e-05 x(29) * x(30)
+4.091724765203084e-05 x(29) * x(31)
+5.963572089475751e-05 x(29) * x(32)
+6.18951677303942e-05 x(29) * x(33)
+4.423588176721716e-05 x(29) * x(34)
+4.935075418541746e-05 x(29) * x(35)
+5.202843947497428e-05 x(29) * x(36)
+7.016386406848076e-05 x(29) * x(37)
+2.5208180307499827e-05 x(29) * x(38)
+5.5041477253839323e-05 x(29) * x(39)
+9.968227051262048e-05 x(29) * x(40)
+9.068000363345293e-05 x(29) * x(41)
+5.864821510619636e-05 x(29) * x(42)
+0.00011680435934147982 x(29) * x(43)
+7.534272572392176e-05 x(29) * x(44)
+5.9857729291754556e-05 x(29) * x(45)
+1.4400507636835031e-05 x(29) * x(46)
+1.1722959302792258e-05 x(29) * x(47)
+4.151804982568934e-05 x(29) * x(48)
+1.0493874671081768e-05 x(29) * x(49)
+3.088605922059733e-05 x(29) * x(50)
+5.314186806268059e-05 x(29) * x(51)
+5.95502495340148e-05 x(29) * x(52)
+7.940677955199577e-05 x(29) * x(53)
+8.497164245216804e-05 x(29) * x(54)
+5.372284917992706e-05 x(29) * x(55)
+4.692663523874598e-05 x(29) * x(56)
+2.0947489207400112e-05 x(29) * x(57)
+6.361769376169605e-05 x(29) * x(58)
+2.176851705314795e-05 x(29) * x(59)
+4.7940417361437394e-05 x(29) * x(60)
+9.31102883538917e-05 x(29) * x(61)
+5.823254253339226e-05 x(29) * x(62)
+5.6415105993204523e-05 x(29) * x(63)
+4.109937092595209e-05 x(29) * x(64)
+2.9056714100201993e-05 x(29) * x(65)
+5.827051342827996e-05 x(29) * x(66)
+3.8967199440328e-05 x(29) * x(67)
+3.521177461311699e-05 x(29) * x(68)
+8.378381407214394e-05 x(29) * x(69)
+3.99881377449295e-05 x(30) ^ 2
+8.050486629851516e-05 x(30) * x(31)
+4.37768575342337e-05 x(30) * x(32)
+3.977472223956411e-05 x(30) * x(33)
+2.93844294651014e-05 x(30) * x(34)
+2.8939874992116277e-05 x(30) * x(35)
+4.1264463067343636e-05 x(30) * x(36)
+4.792548071687357e-05 x(30) * x(37)
+2.8875628001948865e-05 x(30) * x(38)
+4.782912329874996e-05 x(30) * x(39)
+3.88496395321719e-05 x(30) * x(40)
+6.856995999834613e-05 x(30) * x(41)
+4.0955059110226144e-05 x(30) * x(42)
+7.274547507511274e-05 x(30) * x(43)
+4.99546697093978e-05 x(30) * x(44)
+3.5064225823711044e-05 x(30) * x(45)
+5.283315084085526e-06 x(30) * x(46)
+1.9863028406025382e-06 x(30) * x(47)
+3.0333788300889045e-05 x(30) * x(48)
+6.605572715679651e-07 x(30) * x(49)
+2.551070193516589e-05 x(30) * x(50)
+3.729995146546531e-05 x(30) * x(51)
+2.8229746455573426e-05 x(30) * x(52)
+5.153693251928884e-05 x(30) * x(53)
+5.946285049224265e-05 x(30) * x(54)
+3.688854417481497e-05 x(30) * x(55)
+2.720508601905352e-05 x(30) * x(56)
+9.806934409513563e-06 x(30) * x(57)
+4.057820659886931e-05 x(30) * x(58)
+2.137479248200449e-05 x(30) * x(59)
+3.2146071463082305e-05 x(30) * x(60)
+3.48714155916521e-05 x(30) * x(61)
+3.713401074599067e-05 x(30) * x(62)
+2.8532386580160577e-05 x(30) * x(63)
+6.103542617496572e-05 x(30) * x(64)
+5.544568394576303e-05 x(30) * x(65)
+3.38181847022118e-05 x(30) * x(66)
+1.9453217452353116e-05 x(30) * x(67)
+3.050147345073117e-05 x(30) * x(68)
+7.10831594445e-05 x(30) * x(69)
+4.445529207644408e-05 x(31) ^ 2
+5.01342909311979e-05 x(31) * x(32)
+4.5924963386881686e-05 x(31) * x(33)
+3.58435796701255e-05 x(31) * x(34)
+3.415197141538749e-05 x(31) * x(35)
+4.58997340396793e-05 x(31) * x(36)
+5.4758999448017856e-05 x(31) * x(37)
+3.1129907508374586e-05 x(31) * x(38)
+5.230945818211702e-05 x(31) * x(39)
+5.351374370920972e-05 x(31) * x(40)
+8.042816977540326e-05 x(31) * x(41)
+4.77830440118426e-05 x(31) * x(42)
+7.786256024458908e-05 x(31) * x(43)
+5.9623940618844934e-05 x(31) * x(44)
+3.942451961651332e-05 x(31) * x(45)
+6.496221142986771e-06 x(31) * x(46)
+1.948004987843227e-06 x(31) * x(47)
+3.322165266949271e-05 x(31) * x(48)
-3.4969517634113393e-06 x(31) * x(49)
+3.055126015429682e-05 x(31) * x(50)
+4.066685195447383e-05 x(31) * x(51)
+3.631296787262269e-05 x(31) * x(52)
+5.694908527301346e-05 x(31) * x(53)
+6.605208271220607e-05 x(31) * x(54)
+4.184080569968528e-05 x(31) * x(55)
+2.988719474402476e-05 x(31) * x(56)
+1.2456615450343103e-05 x(31) * x(57)
+4.5577899517053705e-05 x(31) * x(58)
+2.779144236016166e-05 x(31) * x(59)
+3.506299174552695e-05 x(31) * x(60)
+4.945022470594976e-05 x(31) * x(61)
+3.76981153644363e-05 x(31) * x(62)
+3.379202367331329e-05 x(31) * x(63)
+6.468441751912048e-05 x(31) * x(64)
+6.046133012215414e-05 x(31) * x(65)
+3.5513709008612505e-05 x(31) * x(66)
+2.143771932813e-05 x(31) * x(67)
+2.959150791864927e-05 x(31) * x(68)
+7.50794762807586e-05 x(31) * x(69)
+7.305944206560334e-05 x(32) ^ 2
+7.161423064661637e-05 x(32) * x(33)
+6.606446836720985e-05 x(32) * x(34)
+5.637961007697944e-05 x(32) * x(35)
+6.747651701303808e-05 x(32) * x(36)
+8.531122184809473e-05 x(32) * x(37)
+1.8850844064667326e-05 x(32) * x(38)
+7.818898955095541e-05 x(32) * x(39)
+9.201879193843528e-05 x(32) * x(40)
+0.00011111902180632689 x(32) * x(41)
+7.053676975176908e-05 x(32) * x(42)
+0.00012836674689134704 x(32) * x(43)
+0.00010248092389588435 x(32) * x(44)
+6.606684741288486e-05 x(32) * x(45)
+1.6183731408317528e-05 x(32) * x(46)
+1.0675531353005746e-05 x(32) * x(47)
+5.919183132482443e-05 x(32) * x(48)
+2.6869303151120934e-06 x(32) * x(49)
+3.141015253874057e-05 x(32) * x(50)
+5.571611918006656e-05 x(32) * x(51)
+5.904216030969454e-05 x(32) * x(52)
+7.666336943145265e-05 x(32) * x(53)
+8.800192527866812e-05 x(32) * x(54)
+5.7633690379084747e-05 x(32) * x(55)
+5.2522858209859924e-05 x(32) * x(56)
+2.2128952749775262e-05 x(32) * x(57)
+8.371411021026548e-05 x(32) * x(58)
+1.0214336835012679e-05 x(32) * x(59)
+4.903416665376217e-05 x(32) * x(60)
+0.00010044825482327373 x(32) * x(61)
+7.723174478550693e-05 x(32) * x(62)
+5.169609484908851e-05 x(32) * x(63)
+4.235657929715447e-05 x(32) * x(64)
+3.6124975434124744e-05 x(32) * x(65)
+5.538397076045411e-05 x(32) * x(66)
+4.311689340417533e-05 x(32) * x(67)
+2.8539901015527978e-05 x(32) * x(68)
+0.0001192932456540557 x(32) * x(69)
+5.037460744605193e-05 x(33) ^ 2
+6.596138003609725e-05 x(33) * x(34)
+5.807837383747453e-05 x(33) * x(35)
+6.843755831679123e-05 x(33) * x(36)
+9.698017941411757e-05 x(33) * x(37)
+3.0494875347143443e-05 x(33) * x(38)
+7.653493436879915e-05 x(33) * x(39)
+0.00011443368099706556 x(33) * x(40)
+0.00011984537358387366 x(33) * x(41)
+8.032776068911614e-05 x(33) * x(42)
+0.00014755830325638916 x(33) * x(43)
+0.0001078895576476361 x(33) * x(44)
+9.21390292613496e-05 x(33) * x(45)
+2.0096832267139095e-05 x(33) * x(46)
+1.7956446660565843e-05 x(33) * x(47)
+6.340635692507714e-05 x(33) * x(48)
-8.357270259602361e-06 x(33) * x(49)
+3.72977904192782e-05 x(33) * x(50)
+6.0787985245992626e-05 x(33) * x(51)
+7.050430142360691e-05 x(33) * x(52)
+9.053245665756417e-05 x(33) * x(53)
+0.00010639876937709732 x(33) * x(54)
+6.261923712249272e-05 x(33) * x(55)
+5.7733375825123705e-05 x(33) * x(56)
+2.0666673558919738e-05 x(33) * x(57)
+8.713987437857891e-05 x(33) * x(58)
+2.0447635347239554e-05 x(33) * x(59)
+5.230971441644733e-05 x(33) * x(60)
+9.873327078324556e-05 x(33) * x(61)
+6.126628146632546e-05 x(33) * x(62)
+6.515662300312837e-05 x(33) * x(63)
+3.842358364659968e-05 x(33) * x(64)
+3.182626733320752e-05 x(33) * x(65)
+6.215711587075668e-05 x(33) * x(66)
+4.8931063901832295e-05 x(33) * x(67)
+2.9712873866748087e-05 x(33) * x(68)
+0.00010271138915142514 x(33) * x(69)
+7.492317382862993e-05 x(34) ^ 2
+5.908624134317862e-05 x(34) * x(35)
+5.977225023332758e-05 x(34) * x(36)
+6.390194257884674e-05 x(34) * x(37)
+3.2552496958332175e-05 x(34) * x(38)
+8.879533568746955e-05 x(34) * x(39)
+8.35010807113958e-05 x(34) * x(40)
+9.612902019525931e-05 x(34) * x(41)
+6.684147374934187e-05 x(34) * x(42)
+0.00012993911191560155 x(34) * x(43)
+7.827485108146163e-05 x(34) * x(44)
+6.659750998490854e-05 x(34) * x(45)
+2.5724904158143605e-05 x(34) * x(46)
+2.1238299245064203e-05 x(34) * x(47)
+5.080722033729519e-05 x(34) * x(48)
-8.953070700564682e-07 x(34) * x(49)
+3.852318874283932e-05 x(34) * x(50)
+4.7612200255299686e-05 x(34) * x(51)
+5.1669484539254995e-05 x(34) * x(52)
+6.925503919180039e-05 x(34) * x(53)
+8.952144197863484e-05 x(34) * x(54)
+2.9544101437157746e-05 x(34) * x(55)
+4.9993892164917376e-05 x(34) * x(56)
+2.569933637076025e-05 x(34) * x(57)
+8.461657248759652e-05 x(34) * x(58)
+2.9023240047161093e-05 x(34) * x(59)
+5.1261614944003314e-05 x(34) * x(60)
+8.796390972962384e-05 x(34) * x(61)
+4.323810738646624e-05 x(34) * x(62)
+5.10510512715751e-05 x(34) * x(63)
+4.6322082155388213e-05 x(34) * x(64)
+3.5423391016745644e-05 x(34) * x(65)
+5.544156859979087e-05 x(34) * x(66)
+5.4917886106576985e-05 x(34) * x(67)
+2.3364690096499566e-05 x(34) * x(68)
+9.177987061909925e-05 x(34) * x(69)
+3.645636568738003e-05 x(35) ^ 2
+5.485437888569356e-05 x(35) * x(36)
+6.71583728453661e-05 x(35) * x(37)
+2.5135591670160378e-05 x(35) * x(38)
+5.651882585719999e-05 x(35) * x(39)
+8.369997916170717e-05 x(35) * x(40)
+8.752357842383674e-05 x(35) * x(41)
+5.898422388170424e-05 x(35) * x(42)
+0.00011302580492681064 x(35) * x(43)
+7.889642538283178e-05 x(35) * x(44)
+5.22576187257535e-05 x(35) * x(45)
+1.3998235573484843e-05 x(35) * x(46)
+1.1589170815493622e-05 x(35) * x(47)
+4.717056924122611e-05 x(35) * x(48)
-2.015687587908311e-06 x(35) * x(49)
+2.8708702001784492e-05 x(35) * x(50)
+4.2615937524421483e-05 x(35) * x(51)
+4.9651081851448555e-05 x(35) * x(52)
+5.933521095755081e-05 x(35) * x(53)
+7.821584280822793e-05 x(35) * x(54)
+3.886526337824536e-05 x(35) * x(55)
+4.624492172305157e-05 x(35) * x(56)
+1.3719912722030507e-05 x(35) * x(57)
+6.390575686870178e-05 x(35) * x(58)
+1.637422074216502e-05 x(35) * x(59)
+5.493753288236317e-05 x(35) * x(60)
+7.761749075808189e-05 x(35) * x(61)
+4.198748894242031e-05 x(35) * x(62)
+4.993420116066245e-05 x(35) * x(63)
+2.7054986054965004e-05 x(35) * x(64)
+2.455817724109686e-05 x(35) * x(65)
+5.6606359726798696e-05 x(35) * x(66)
+4.36702247157255e-05 x(35) * x(67)
+2.8649880521507798e-05 x(35) * x(68)
+7.18337233387352e-05 x(35) * x(69)
+4.247266377053736e-05 x(36) ^ 2
+7.919201635390935e-05 x(36) * x(37)
+3.1099914851993e-05 x(36) * x(38)
+6.967635579784681e-05 x(36) * x(39)
+9.744592644482405e-05 x(36) * x(40)
+0.00011375657824321042 x(36) * x(41)
+6.84225603203875e-05 x(36) * x(42)
+0.00014489698862290757 x(36) * x(43)
+9.736140177541504e-05 x(36) * x(44)
+6.59429287206454e-05 x(36) * x(45)
+2.0401775932077674e-05 x(36) * x(46)
+1.6796689683824882e-05 x(36) * x(47)
+5.580486594437235e-05 x(36) * x(48)
+5.730677766982741e-06 x(36) * x(49)
+3.0154856026115535e-05 x(36) * x(50)
+5.5130314250637565e-05 x(36) * x(51)
+6.31668653146561e-05 x(36) * x(52)
+7.143675752245611e-05 x(36) * x(53)
+9.108855941227736e-05 x(36) * x(54)
+5.715684016236033e-05 x(36) * x(55)
+5.002052862772568e-05 x(36) * x(56)
+1.9779083084678214e-05 x(36) * x(57)
+7.95037968088426e-05 x(36) * x(58)
+1.9726829132495894e-05 x(36) * x(59)
+4.655557501415776e-05 x(36) * x(60)
+9.304422906923278e-05 x(36) * x(61)
+6.220639910004843e-05 x(36) * x(62)
+5.700163197287606e-05 x(36) * x(63)
+3.583911740170081e-05 x(36) * x(64)
+3.8017443422130305e-05 x(36) * x(65)
+6.068269955290713e-05 x(36) * x(66)
+4.039980362256843e-05 x(36) * x(67)
+3.349850048725038e-05 x(36) * x(68)
+0.00010194079709722982 x(36) * x(69)
+7.707793326808724e-05 x(37) ^ 2
+2.7370043970367976e-05 x(37) * x(38)
+8.106058155385795e-05 x(37) * x(39)
+0.00013763702784519547 x(37) * x(40)
+0.00014833849640109273 x(37) * x(41)
+8.719127304582224e-05 x(37) * x(42)
+0.00018394265772920138 x(37) * x(43)
+0.00011457006493825095 x(37) * x(44)
+9.259999747151797e-05 x(37) * x(45)
+1.3630259155099773e-05 x(37) * x(46)
+1.2025754744856825e-05 x(37) * x(47)
+7.572610782572071e-05 x(37) * x(48)
-1.5182450977777708e-06 x(37) * x(49)
+3.284235083142261e-05 x(37) * x(50)
+6.84265471903279e-05 x(37) * x(51)
+8.583861558970546e-05 x(37) * x(52)
+0.00010370293713175306 x(37) * x(53)
+0.00012435794812892586 x(37) * x(54)
+7.484177594226729e-05 x(37) * x(55)
+6.016392164929538e-05 x(37) * x(56)
+2.752713157784465e-05 x(37) * x(57)
+9.496065158819609e-05 x(37) * x(58)
+1.6102253323244935e-05 x(37) * x(59)
+6.061576631431352e-05 x(37) * x(60)
+0.0001128347089190484 x(37) * x(61)
+7.413580640280501e-05 x(37) * x(62)
+6.895156647350124e-05 x(37) * x(63)
+4.4587434278857685e-05 x(37) * x(64)
+4.261760078567698e-05 x(37) * x(65)
+7.102526210725591e-05 x(37) * x(66)
+4.723332343913729e-05 x(37) * x(67)
+3.880726144105806e-05 x(37) * x(68)
+0.00012001899351707383 x(37) * x(69)
+3.3271518204711964e-05 x(38) ^ 2
+3.583813858334797e-05 x(38) * x(39)
+2.1910411643341388e-05 x(38) * x(40)
+4.486404141833766e-05 x(38) * x(41)
+3.767195105318451e-05 x(38) * x(42)
+5.898725741836898e-05 x(38) * x(43)
+3.6231668178142325e-05 x(38) * x(44)
+2.6648921592711907e-05 x(38) * x(45)
+1.7787599945140758e-05 x(38) * x(46)
+1.5901614882678898e-05 x(38) * x(47)
+1.799514422236386e-05 x(38) * x(48)
+1.0451340839369083e-05 x(38) * x(49)
+1.987747351711178e-05 x(38) * x(50)
+1.3372807048156621e-05 x(38) * x(51)
+3.0449920972291196e-05 x(38) * x(52)
+2.265163020952523e-05 x(38) * x(53)
+4.189290586954634e-05 x(38) * x(54)
+2.5637944698014513e-05 x(38) * x(55)
+3.302420681990332e-05 x(38) * x(56)
+1.7541636528907603e-05 x(38) * x(57)
+3.619244222045728e-05 x(38) * x(58)
+6.075178360641146e-05 x(38) * x(59)
+3.3731378177147664e-05 x(38) * x(60)
+2.0957210200954515e-05 x(38) * x(61)
+2.539333229369442e-05 x(38) * x(62)
+2.504011163412778e-05 x(38) * x(63)
+4.2849727776000715e-05 x(38) * x(64)
+3.0465390824728622e-05 x(38) * x(65)
+3.308313002693344e-05 x(38) * x(66)
+2.4769225563770003e-05 x(38) * x(67)
+1.739880364762324e-05 x(38) * x(68)
+5.2414794150087125e-05 x(38) * x(69)
+8.655235784654079e-05 x(39) ^ 2
+0.0001022095744558215 x(39) * x(40)
+0.00014209336870766535 x(39) * x(41)
+8.317930392730127e-05 x(39) * x(42)
+0.00017116505175870228 x(39) * x(43)
+0.00010823972391233073 x(39) * x(44)
+7.616339037967349e-05 x(39) * x(45)
+2.66614117271195e-05 x(39) * x(46)
+1.8966631979154387e-05 x(39) * x(47)
+5.4505953357408325e-05 x(39) * x(48)
-7.892342903456137e-06 x(39) * x(49)
+3.701088186778643e-05 x(39) * x(50)
+5.4718221666713624e-05 x(39) * x(51)
+7.459784476440333e-05 x(39) * x(52)
+8.54555447741597e-05 x(39) * x(53)
+0.00011209869214520181 x(39) * x(54)
+5.379805910934136e-05 x(39) * x(55)
+5.6113969386156094e-05 x(39) * x(56)
+2.5866755213065227e-05 x(39) * x(57)
+9.568018540583782e-05 x(39) * x(58)
+2.199342787879058e-05 x(39) * x(59)
+5.4016064643625846e-05 x(39) * x(60)
+0.00010787260070130775 x(39) * x(61)
+5.445096338631469e-05 x(39) * x(62)
+7.085391361499423e-05 x(39) * x(63)
+5.5341511657963717e-05 x(39) * x(64)
+3.8942621993814446e-05 x(39) * x(65)
+7.755466423160301e-05 x(39) * x(66)
+5.277102851890171e-05 x(39) * x(67)
+2.830643148193573e-05 x(39) * x(68)
+0.00011781117679361163 x(39) * x(69)
+0.00015892889076257809 x(40) ^ 2
+0.00015887772280158752 x(40) * x(41)
+0.000105890183881597 x(40) * x(42)
+0.00020211799912675112 x(40) * x(43)
+0.00018271478523676764 x(40) * x(44)
+0.00011319728674806513 x(40) * x(45)
+9.614811415651683e-06 x(40) * x(46)
+7.119120189471627e-06 x(40) * x(47)
+9.010609596940296e-05 x(40) * x(48)
-1.9289901502879076e-05 x(40) * x(49)
+6.125189631511086e-05 x(40) * x(50)
+8.389070244889637e-05 x(40) * x(51)
+9.75948699213022e-05 x(40) * x(52)
+0.00013624901099786138 x(40) * x(53)
+0.00014795498358634255 x(40) * x(54)
+7.209286341066684e-05 x(40) * x(55)
+7.925560050260994e-05 x(40) * x(56)
+4.7263199287582735e-06 x(40) * x(57)
+0.00012933465533953613 x(40) * x(58)
+2.1553580088518766e-06 x(40) * x(59)
+6.999793448704814e-05 x(40) * x(60)
+0.0002054265893670894 x(40) * x(61)
+8.570778052227341e-05 x(40) * x(62)
+8.172930661615571e-05 x(40) * x(63)
+5.589196104741432e-05 x(40) * x(64)
+3.6169044227217536e-05 x(40) * x(65)
+8.500031422362731e-05 x(40) * x(66)
+6.665183759089337e-05 x(40) * x(67)
+3.516448423642619e-05 x(40) * x(68)
+0.00015222853986329284 x(40) * x(69)
+0.0002127403901550105 x(41) ^ 2
+0.00012125784759195441 x(41) * x(42)
+0.0002752095318415951 x(41) * x(43)
+0.00014335828646688987 x(41) * x(44)
+0.00011631921949450979 x(41) * x(45)
+4.095811363909918e-05 x(41) * x(46)
+3.1887906031374907e-05 x(41) * x(47)
+9.647410175284963e-05 x(41) * x(48)
+4.38357962327627e-06 x(41) * x(49)
+4.240806333797044e-05 x(41) * x(50)
+8.845406042380195e-05 x(41) * x(51)
+0.00013397345213343796 x(41) * x(52)
+0.00012022025612113764 x(41) * x(53)
+0.00017207477062899736 x(41) * x(54)
+7.553929181443508e-05 x(41) * x(55)
+7.71328293682897e-05 x(41) * x(56)
+3.7811546650305454e-05 x(41) * x(57)
+0.0001380551978274016 x(41) * x(58)
+3.719648547164459e-05 x(41) * x(59)
+8.783826839419109e-05 x(41) * x(60)
+0.00015100764537135668 x(41) * x(61)
+0.00011079600816386154 x(41) * x(62)
+0.00010914299536738581 x(41) * x(63)
+9.935316145171729e-05 x(41) * x(64)
+6.0053837565870524e-05 x(41) * x(65)
+0.00011193968239173923 x(41) * x(66)
+7.938275159348299e-05 x(41) * x(67)
+3.59908714281861e-05 x(41) * x(68)
+0.0001641540872223383 x(41) * x(69)
+5.7217256452256354e-05 x(42) ^ 2
+0.00014637581802779033 x(42) * x(43)
+9.845264946468391e-05 x(42) * x(44)
+7.432910464932383e-05 x(42) * x(45)
+1.331625421170916e-05 x(42) * x(46)
+1.3290354571695204e-05 x(42) * x(47)
+4.986203004453407e-05 x(42) * x(48)
+8.706839766302861e-07 x(42) * x(49)
+4.1923931089466796e-05 x(42) * x(50)
+5.566950754934079e-05 x(42) * x(51)
+7.36929212070888e-05 x(42) * x(52)
+7.399485180764185e-05 x(42) * x(53)
+0.00010544970139405156 x(42) * x(54)
+6.157994955507101e-05 x(42) * x(55)
+6.28458619984958e-05 x(42) * x(56)
+1.4553071528754392e-05 x(42) * x(57)
+8.606729476075454e-05 x(42) * x(58)
+2.2339481958945444e-05 x(42) * x(59)
+5.519971592267291e-05 x(42) * x(60)
+7.742066315360592e-05 x(42) * x(61)
+6.776330619722867e-05 x(42) * x(62)
+6.564734823290528e-05 x(42) * x(63)
+5.0950102943899626e-05 x(42) * x(64)
+4.034544571755688e-05 x(42) * x(65)
+6.481559604596924e-05 x(42) * x(66)
+4.9747031060182424e-05 x(42) * x(67)
+3.769101392793588e-05 x(42) * x(68)
+0.00012247665204183635 x(42) * x(69)
+0.0002902761927753871 x(43) ^ 2
+0.00022853971710328362 x(43) * x(44)
+0.0001514435282750105 x(43) * x(45)
+2.9671916754139237e-05 x(43) * x(46)
+2.714877095972575e-05 x(43) * x(47)
+9.932696655257461e-05 x(43) * x(48)
+2.6291859890949613e-05 x(43) * x(49)
+4.507226360461001e-05 x(43) * x(50)
+0.00010884848366674097 x(43) * x(51)
+0.00014275468046708403 x(43) * x(52)
+0.0001789894540908539 x(43) * x(53)
+0.00024466228213157226 x(43) * x(54)
+0.00012126757124152267 x(43) * x(55)
+9.98862359016435e-05 x(43) * x(56)
+5.037622791947077e-05 x(43) * x(57)
+0.00014668971147957226 x(43) * x(58)
+2.8436556025371054e-05 x(43) * x(59)
+9.912451233758327e-05 x(43) * x(60)
+0.0001590010336776448 x(43) * x(61)
+0.00011568494835158677 x(43) * x(62)
+0.00011847084419519823 x(43) * x(63)
+8.427774466506052e-05 x(43) * x(64)
+7.782768713031528e-05 x(43) * x(65)
+0.00012240554155973105 x(43) * x(66)
+9.870375910245736e-05 x(43) * x(67)
+5.494124027957261e-05 x(43) * x(68)
+0.00022743466330318478 x(43) * x(69)
+0.00014344026689049906 x(44) ^ 2
+0.00010178583984508568 x(44) * x(45)
+5.101580345002284e-06 x(44) * x(46)
+2.4556025985217453e-06 x(44) * x(47)
+7.65395046771944e-05 x(44) * x(48)
-1.8483405200209424e-05 x(44) * x(49)
+3.411618368726434e-05 x(44) * x(50)
+9.20422694070583e-05 x(44) * x(51)
+7.889139575139682e-05 x(44) * x(52)
+0.00012499684355744405 x(44) * x(53)
+0.00013046623769392876 x(44) * x(54)
+7.695852666482403e-05 x(44) * x(55)
+7.366369927638302e-05 x(44) * x(56)
+1.0374930821896645e-05 x(44) * x(57)
+0.00011293573522267948 x(44) * x(58)
+3.208435601953333e-05 x(44) * x(59)
+7.997116872420365e-05 x(44) * x(60)
+0.00016337418969328683 x(44) * x(61)
+6.126581353494877e-05 x(44) * x(62)
+6.91611776255968e-05 x(44) * x(63)
+6.862196041047888e-05 x(44) * x(64)
+4.2386133706052364e-05 x(44) * x(65)
+9.018555894530652e-05 x(44) * x(66)
+6.749584071876593e-05 x(44) * x(67)
+2.9779846562894117e-05 x(44) * x(68)
+0.00015965309216376352 x(44) * x(69)
+5.133168455682451e-05 x(45) ^ 2
+2.197742347375428e-05 x(45) * x(46)
+2.077623807768757e-05 x(45) * x(47)
+7.034076036865779e-05 x(45) * x(48)
-2.1080239366315287e-06 x(45) * x(49)
+3.8643707115385284e-05 x(45) * x(50)
+5.713955574481918e-05 x(45) * x(51)
+6.885920297191277e-05 x(45) * x(52)
+9.873763090511023e-05 x(45) * x(53)
+9.959606773519561e-05 x(45) * x(54)
+5.883889694092933e-05 x(45) * x(55)
+5.3828107326907466e-05 x(45) * x(56)
+2.1261115786913516e-05 x(45) * x(57)
+8.171951186115635e-05 x(45) * x(58)
+1.7096097657348913e-05 x(45) * x(59)
+4.950969729894828e-05 x(45) * x(60)
+0.00010043048598892201 x(45) * x(61)
+5.660044542773056e-05 x(45) * x(62)
+6.45675774324512e-05 x(45) * x(63)
+4.3321192498734706e-05 x(45) * x(64)
+3.1053968812307466e-05 x(45) * x(65)
+6.128532315013899e-05 x(45) * x(66)
+5.313168747332824e-05 x(45) * x(67)
+2.185388020375363e-05 x(45) * x(68)
+0.00010427138904398386 x(45) * x(69)
+4.3164240978358614e-05 x(46) ^ 2
+7.504158768665512e-05 x(46) * x(47)
+1.0713541301725691e-05 x(46) * x(48)
+6.116001213192826e-05 x(46) * x(49)
+1.3999777344653437e-06 x(46) * x(50)
+1.2762616896219328e-05 x(46) * x(51)
+1.625667703680909e-05 x(46) * x(52)
+1.3049148057899992e-05 x(46) * x(53)
+2.1071481708498548e-05 x(46) * x(54)
+3.083500534253154e-06 x(46) * x(55)
+1.631186458174424e-05 x(46) * x(56)
+2.5117577824355028e-05 x(46) * x(57)
+3.5538131827048224e-05 x(46) * x(58)
+5.143522271665668e-06 x(46) * x(59)
+1.100703050785286e-05 x(46) * x(60)
+4.6206947231581405e-05 x(46) * x(61)
+1.0065634005868934e-05 x(46) * x(62)
+3.173585180813813e-05 x(46) * x(63)
+1.3337906567270917e-05 x(46) * x(64)
+9.96524214031648e-06 x(46) * x(65)
+2.03525190402774e-05 x(46) * x(66)
+1.396102324036142e-05 x(46) * x(67)
+1.4301105474305141e-06 x(46) * x(68)
+1.905951013726017e-05 x(46) * x(69)
+3.5416984017233196e-05 x(47) ^ 2
+9.551086839126107e-06 x(47) * x(48)
+5.9218095574829587e-05 x(47) * x(49)
-1.0527716740611372e-06 x(47) * x(50)
+1.180046604596552e-05 x(47) * x(51)
+1.612843138887899e-05 x(47) * x(52)
+1.3804203692572748e-05 x(47) * x(53)
+1.8099937425872263e-05 x(47) * x(54)
+2.1570898721917502e-06 x(47) * x(55)
+1.2849720127395952e-05 x(47) * x(56)
+1.967757115132265e-05 x(47) * x(57)
+3.171812736753897e-05 x(47) * x(58)
+3.076387699146365e-06 x(47) * x(59)
+9.476833934336993e-06 x(47) * x(60)
+3.7061164522162065e-05 x(47) * x(61)
+8.80215588833207e-06 x(47) * x(62)
+3.0869613008184035e-05 x(47) * x(63)
+1.044291192935512e-05 x(47) * x(64)
+7.881031612187809e-06 x(47) * x(65)
+2.1644763963047993e-05 x(47) * x(66)
+1.2295437616499985e-05 x(47) * x(67)
+2.3460423970078745e-06 x(47) * x(68)
+1.7416270852354827e-05 x(47) * x(69)
+8.261262433726181e-05 x(48) ^ 2
-1.218856632632199e-05 x(48) * x(49)
+3.867644462587013e-05 x(48) * x(50)
+5.1706979117720125e-05 x(48) * x(51)
+7.110467022509807e-05 x(48) * x(52)
+7.794007851567004e-05 x(48) * x(53)
+7.375938368808826e-05 x(48) * x(54)
+3.232785577783022e-05 x(48) * x(55)
+3.5530093853687754e-05 x(48) * x(56)
+1.2050405714143432e-05 x(48) * x(57)
+7.098407719284623e-05 x(48) * x(58)
+7.68922266478539e-06 x(48) * x(59)
+3.4611927724732164e-05 x(48) * x(60)
+7.428860712924617e-05 x(48) * x(61)
+5.802599705325917e-05 x(48) * x(62)
+5.161857204484234e-05 x(48) * x(63)
+4.151291366444585e-05 x(48) * x(64)
+1.9605374081878788e-05 x(48) * x(65)
+5.068546680644497e-05 x(48) * x(66)
+5.426224464056152e-05 x(48) * x(67)
+1.4165632842515659e-05 x(48) * x(68)
+7.772871508864033e-05 x(48) * x(69)
+7.374019820159066e-05 x(49) ^ 2
-1.2824217533046206e-05 x(49) * x(50)
+2.084137349658906e-06 x(49) * x(51)
+1.187183383190121e-07 x(49) * x(52)
+1.020058013577748e-05 x(49) * x(53)
+8.026073064121879e-06 x(49) * x(54)
-5.32868482293643e-06 x(49) * x(55)
-1.1639722085044858e-06 x(49) * x(56)
+1.546295991804344e-05 x(49) * x(57)
+8.776134013766202e-06 x(49) * x(58)
+1.3262871982861257e-06 x(49) * x(59)
-2.2349804782287395e-06 x(49) * x(60)
+7.979537714372883e-06 x(49) * x(61)
+1.2548409150743748e-05 x(49) * x(62)
+2.237693132062872e-05 x(49) * x(63)
+6.251847014531951e-06 x(49) * x(64)
-1.2268681433938055e-06 x(49) * x(65)
+1.3137076764452698e-05 x(49) * x(66)
-2.1256424115279196e-07 x(49) * x(67)
+2.274464353032408e-06 x(49) * x(68)
+1.1081934241595094e-05 x(49) * x(69)
+4.5351125945490595e-05 x(50) ^ 2
+1.6100080609154024e-05 x(50) * x(51)
+3.0259523621239873e-05 x(50) * x(52)
+4.293618773051799e-05 x(50) * x(53)
+5.3892626063872136e-05 x(50) * x(54)
+1.9462401675943864e-05 x(50) * x(55)
+3.3362703607932175e-05 x(50) * x(56)
+1.2141452139264369e-05 x(50) * x(57)
+3.8836587286052904e-05 x(50) * x(58)
+9.55314386483259e-06 x(50) * x(59)
+2.2898148752032163e-05 x(50) * x(60)
+3.3730264570259144e-05 x(50) * x(61)
+1.9906426673428097e-05 x(50) * x(62)
+2.7912658848036305e-05 x(50) * x(63)
+3.076172023789987e-05 x(50) * x(64)
+2.641536589637792e-05 x(50) * x(65)
+3.504062143717287e-05 x(50) * x(66)
+1.632595901418148e-05 x(50) * x(67)
+2.514683662051017e-05 x(50) * x(68)
+5.0312784996972904e-05 x(50) * x(69)
+6.248809481614596e-05 x(51) ^ 2
+4.956439963957383e-05 x(51) * x(52)
+6.097407489156047e-05 x(51) * x(53)
+7.456949041946831e-05 x(51) * x(54)
+3.375385408897563e-05 x(51) * x(55)
+3.75726327236823e-05 x(51) * x(56)
+2.1054344818549336e-05 x(51) * x(57)
+6.739434557958053e-05 x(51) * x(58)
-2.99537263074793e-06 x(51) * x(59)
+4.430416037945613e-05 x(51) * x(60)
+9.063054902326598e-05 x(51) * x(61)
+4.613181677472593e-05 x(51) * x(62)
+6.172859517242139e-05 x(51) * x(63)
+2.8805155643421094e-05 x(51) * x(64)
+3.4761505052246696e-05 x(51) * x(65)
+6.109372924625485e-05 x(51) * x(66)
+3.5145607673792e-05 x(51) * x(67)
+2.3448435381693764e-05 x(51) * x(68)
+6.494598594619248e-05 x(51) * x(69)
+8.25461153197929e-05 x(52) ^ 2
+9.199528557089464e-05 x(52) * x(53)
+9.830662072922985e-05 x(52) * x(54)
+6.04375109639131e-05 x(52) * x(55)
+5.363520550781919e-05 x(52) * x(56)
+2.450038657715127e-05 x(52) * x(57)
+9.054458002035174e-05 x(52) * x(58)
+2.6943026347371997e-05 x(52) * x(59)
+4.767201762547142e-05 x(52) * x(60)
+9.338157979293193e-05 x(52) * x(61)
+5.1864833538435055e-05 x(52) * x(62)
+6.718563758639633e-05 x(52) * x(63)
+3.955015083499219e-05 x(52) * x(64)
+3.0306051805325777e-05 x(52) * x(65)
+5.4226569314315674e-05 x(52) * x(66)
+5.41450858402825e-05 x(52) * x(67)
+2.7549682217686284e-05 x(52) * x(68)
+0.00011155294085034763 x(52) * x(69)
+0.00011929437428915707 x(53) ^ 2
+0.00011289528297119664 x(53) * x(54)
+6.589351424099315e-05 x(53) * x(55)
+5.8888444053835466e-05 x(53) * x(56)
+1.5435752637439202e-05 x(53) * x(57)
+9.645109600035837e-05 x(53) * x(58)
+1.5751239256163264e-05 x(53) * x(59)
+5.707515990091595e-05 x(53) * x(60)
+9.724122393058627e-05 x(53) * x(61)
+8.611125788413067e-05 x(53) * x(62)
+7.08420897593133e-05 x(53) * x(63)
+8.133084647446758e-05 x(53) * x(64)
+4.48916517659685e-05 x(53) * x(65)
+6.820654234857052e-05 x(53) * x(66)
+5.730953472022525e-05 x(53) * x(67)
+4.363869278030263e-05 x(53) * x(68)
+0.0001515608533970423 x(53) * x(69)
+9.184629357946966e-05 x(54) ^ 2
+8.120127120452934e-05 x(54) * x(55)
+7.707108707517244e-05 x(54) * x(56)
+2.4738608875185625e-05 x(54) * x(57)
+0.00012192033634587705 x(54) * x(58)
+2.3416762351901713e-05 x(54) * x(59)
+6.921147869571231e-05 x(54) * x(60)
+0.0001307658766079483 x(54) * x(61)
+7.92757019827605e-05 x(54) * x(62)
+8.761117196913156e-05 x(54) * x(63)
+6.336521895719679e-05 x(54) * x(64)
+5.0962336154766225e-05 x(54) * x(65)
+9.005740411353633e-05 x(54) * x(66)
+5.995109380341518e-05 x(54) * x(67)
+4.4478053043222894e-05 x(54) * x(68)
+0.00013767209759018225 x(54) * x(69)
+6.165381169471655e-05 x(55) ^ 2
+5.51267953358727e-05 x(55) * x(56)
+1.498954871234382e-05 x(55) * x(57)
+6.27136098015923e-05 x(55) * x(58)
+2.78066796538125e-05 x(55) * x(59)
+3.9572776198649415e-05 x(55) * x(60)
+5.06434305491582e-05 x(55) * x(61)
+5.066030546573929e-05 x(55) * x(62)
+4.879762952098526e-05 x(55) * x(63)
+3.50965808661926e-05 x(55) * x(64)
+3.655505320300404e-05 x(55) * x(65)
+4.6797066045543064e-05 x(55) * x(66)
+2.6043164747740957e-05 x(55) * x(67)
+2.1118328325621458e-05 x(55) * x(68)
+9.794727303412252e-05 x(55) * x(69)
+4.074138973371538e-05 x(56) ^ 2
+1.7593075127935227e-05 x(56) * x(57)
+6.904124099385937e-05 x(56) * x(58)
+1.7288961620879873e-05 x(56) * x(59)
+4.3245477218633354e-05 x(56) * x(60)
+6.826837622108519e-05 x(56) * x(61)
+4.3488917853966064e-05 x(56) * x(62)
+5.0878564837476314e-05 x(56) * x(63)
+2.827468926167313e-05 x(56) * x(64)
+2.761316367962585e-05 x(56) * x(65)
+5.215626173193061e-05 x(56) * x(66)
+4.8823927919175596e-05 x(56) * x(67)
+2.4045131766714985e-05 x(56) * x(68)
+7.700252149081634e-05 x(56) * x(69)
+2.801915194220714e-05 x(57) ^ 2
+2.1251654000921947e-05 x(57) * x(58)
+1.1137225591991292e-05 x(57) * x(59)
+1.736946538882209e-05 x(57) * x(60)
+2.4912975617558557e-05 x(57) * x(61)
+1.1474861973102142e-05 x(57) * x(62)
+2.3056221530725947e-05 x(57) * x(63)
+1.2392584749251693e-05 x(57) * x(64)
+1.3671340883907341e-05 x(57) * x(65)
+1.6281653874986984e-05 x(57) * x(66)
+1.319449380464256e-05 x(57) * x(67)
+1.434177204526036e-05 x(57) * x(68)
+3.131508351307646e-05 x(57) * x(69)
+7.955576673604077e-05 x(58) ^ 2
+3.886191995845579e-06 x(58) * x(59)
+5.598083072213159e-05 x(58) * x(60)
+0.00013454985201571447 x(58) * x(61)
+6.77963947694987e-05 x(58) * x(62)
+8.373362849043457e-05 x(58) * x(63)
+6.186577390141592e-05 x(58) * x(64)
+3.549770127789346e-05 x(58) * x(65)
+7.846081090305669e-05 x(58) * x(66)
+5.4480087624454107e-05 x(58) * x(67)
+2.994191098900985e-05 x(58) * x(68)
+0.00013938408174215712 x(58) * x(69)
+5.6523808556865925e-05 x(59) ^ 2
+2.9484503420657748e-05 x(59) * x(60)
-1.8543193630366996e-06 x(59) * x(61)
+4.3118863338614796e-06 x(59) * x(62)
+6.484657543829351e-06 x(59) * x(63)
+3.1405984192401196e-05 x(59) * x(64)
+2.7006418059003324e-05 x(59) * x(65)
+2.1696270696753197e-05 x(59) * x(66)
+1.84847596876553e-05 x(59) * x(67)
+1.9799854409677132e-05 x(59) * x(68)
+3.0406738184150396e-05 x(59) * x(69)
+3.875088002674237e-05 x(60) ^ 2
+6.139952741766469e-05 x(60) * x(61)
+4.342373719528733e-05 x(60) * x(62)
+4.1414870876743516e-05 x(60) * x(63)
+2.9193723456959175e-05 x(60) * x(64)
+2.3938935348691377e-05 x(60) * x(65)
+4.583481674452851e-05 x(60) * x(66)
+4.363556156206886e-05 x(60) * x(67)
+3.235150725006832e-05 x(60) * x(68)
+6.157922511102104e-05 x(60) * x(69)
+0.00016131974090196504 x(61) ^ 2
+6.184599769531483e-05 x(61) * x(62)
+9.009192469907205e-05 x(61) * x(63)
+3.414855360319242e-05 x(61) * x(64)
+2.8211667080135455e-05 x(61) * x(65)
+8.444245011083836e-05 x(61) * x(66)
+6.915339596459327e-05 x(61) * x(67)
+2.9607274786962925e-05 x(61) * x(68)
+0.0001280229186584171 x(61) * x(69)
+7.839805453698797e-05 x(62) ^ 2
+5.9980928204554896e-05 x(62) * x(63)
+4.751906786703622e-05 x(62) * x(64)
+2.310592052683027e-05 x(62) * x(65)
+5.275448401464708e-05 x(62) * x(66)
+3.4240937815820705e-05 x(62) * x(67)
+2.7674181694769984e-05 x(62) * x(68)
+0.00010170177628401868 x(62) * x(69)
+5.568012174037968e-05 x(63) ^ 2
+2.3116773450749763e-05 x(63) * x(64)
+2.3373033874257933e-05 x(63) * x(65)
+8.256577559933539e-05 x(63) * x(66)
+4.216181138108091e-05 x(63) * x(67)
+2.2524453096915842e-05 x(63) * x(68)
+8.895330799775626e-05 x(63) * x(69)
+0.0001039322150650465 x(64) ^ 2
+6.225786391970404e-05 x(64) * x(65)
+3.4813512690032166e-05 x(64) * x(66)
+2.5865665176458223e-05 x(64) * x(67)
+1.3000057319282944e-05 x(64) * x(68)
+8.893182309778006e-05 x(64) * x(69)
+4.220579168011443e-05 x(65) ^ 2
+2.6636626942187317e-05 x(65) * x(66)
+1.9358951342288062e-05 x(65) * x(67)
+1.8762151593981194e-05 x(65) * x(68)
+5.5723880955325265e-05 x(65) * x(69)
+5.2852193423667594e-05 x(66) ^ 2
+4.093399866302458e-05 x(66) * x(67)
+2.946386777513931e-05 x(66) * x(68)
+0.0001047525856889472 x(66) * x(69)
+4.256614569272135e-05 x(67) ^ 2
+2.4203854232929522e-05 x(67) * x(68)
+4.9956436609506186e-05 x(67) * x(69)
+5.158753936855159e-05 x(68) ^ 2
+4.931768551668076e-05 x(68) * x(69)
+0.00015849737198724083 x(69) ^ 2
-1 r ^ 2
]
<= 0

c_u_const_restr_vinculo_x_y(0)_:
+1 x(0)
-1 y(0)
<= 0

c_u_const_restr_vinculo_x_y(1)_:
+1 x(1)
-1 y(1)
<= 0

c_u_const_restr_vinculo_x_y(2)_:
+1 x(2)
-1 y(2)
<= 0

c_u_const_restr_vinculo_x_y(3)_:
+1 x(3)
-1 y(3)
<= 0

c_u_const_restr_vinculo_x_y(4)_:
+1 x(4)
-1 y(4)
<= 0

c_u_const_restr_vinculo_x_y(5)_:
+1 x(5)
-1 y(5)
<= 0

c_u_const_restr_vinculo_x_y(6)_:
+1 x(6)
-1 y(6)
<= 0

c_u_const_restr_vinculo_x_y(7)_:
+1 x(7)
-1 y(7)
<= 0

c_u_const_restr_vinculo_x_y(8)_:
+1 x(8)
-1 y(8)
<= 0

c_u_const_restr_vinculo_x_y(9)_:
+1 x(9)
-1 y(9)
<= 0

c_u_const_restr_vinculo_x_y(10)_:
+1 x(10)
-1 y(10)
<= 0

c_u_const_restr_vinculo_x_y(11)_:
+1 x(11)
-1 y(11)
<= 0

c_u_const_restr_vinculo_x_y(12)_:
+1 x(12)
-1 y(12)
<= 0

c_u_const_restr_vinculo_x_y(13)_:
+1 x(13)
-1 y(13)
<= 0

c_u_const_restr_vinculo_x_y(14)_:
+1 x(14)
-1 y(14)
<= 0

c_u_const_restr_vinculo_x_y(15)_:
+1 x(15)
-1 y(15)
<= 0

c_u_const_restr_vinculo_x_y(16)_:
+1 x(16)
-1 y(16)
<= 0

c_u_const_restr_vinculo_x_y(17)_:
+1 x(17)
-1 y(17)
<= 0

c_u_const_restr_vinculo_x_y(18)_:
+1 x(18)
-1 y(18)
<= 0

c_u_const_restr_vinculo_x_y(19)_:
+1 x(19)
-1 y(19)
<= 0

c_u_const_restr_vinculo_x_y(20)_:
+1 x(20)
-1 y(20)
<= 0

c_u_const_restr_vinculo_x_y(21)_:
+1 x(21)
-1 y(21)
<= 0

c_u_const_restr_vinculo_x_y(22)_:
+1 x(22)
-1 y(22)
<= 0

c_u_const_restr_vinculo_x_y(23)_:
+1 x(23)
-1 y(23)
<= 0

c_u_const_restr_vinculo_x_y(24)_:
+1 x(24)
-1 y(24)
<= 0

c_u_const_restr_vinculo_x_y(25)_:
+1 x(25)
-1 y(25)
<= 0

c_u_const_restr_vinculo_x_y(26)_:
+1 x(26)
-1 y(26)
<= 0

c_u_const_restr_vinculo_x_y(27)_:
+1 x(27)
-1 y(27)
<= 0

c_u_const_restr_vinculo_x_y(28)_:
+1 x(28)
-1 y(28)
<= 0

c_u_const_restr_vinculo_x_y(29)_:
+1 x(29)
-1 y(29)
<= 0

c_u_const_restr_vinculo_x_y(30)_:
+1 x(30)
-1 y(30)
<= 0

c_u_const_restr_vinculo_x_y(31)_:
+1 x(31)
-1 y(31)
<= 0

c_u_const_restr_vinculo_x_y(32)_:
+1 x(32)
-1 y(32)
<= 0

c_u_const_restr_vinculo_x_y(33)_:
+1 x(33)
-1 y(33)
<= 0

c_u_const_restr_vinculo_x_y(34)_:
+1 x(34)
-1 y(34)
<= 0

c_u_const_restr_vinculo_x_y(35)_:
+1 x(35)
-1 y(35)
<= 0

c_u_const_restr_vinculo_x_y(36)_:
+1 x(36)
-1 y(36)
<= 0

c_u_const_restr_vinculo_x_y(37)_:
+1 x(37)
-1 y(37)
<= 0

c_u_const_restr_vinculo_x_y(38)_:
+1 x(38)
-1 y(38)
<= 0

c_u_const_restr_vinculo_x_y(39)_:
+1 x(39)
-1 y(39)
<= 0

c_u_const_restr_vinculo_x_y(40)_:
+1 x(40)
-1 y(40)
<= 0

c_u_const_restr_vinculo_x_y(41)_:
+1 x(41)
-1 y(41)
<= 0

c_u_const_restr_vinculo_x_y(42)_:
+1 x(42)
-1 y(42)
<= 0

c_u_const_restr_vinculo_x_y(43)_:
+1 x(43)
-1 y(43)
<= 0

c_u_const_restr_vinculo_x_y(44)_:
+1 x(44)
-1 y(44)
<= 0

c_u_const_restr_vinculo_x_y(45)_:
+1 x(45)
-1 y(45)
<= 0

c_u_const_restr_vinculo_x_y(46)_:
+1 x(46)
-1 y(46)
<= 0

c_u_const_restr_vinculo_x_y(47)_:
+1 x(47)
-1 y(47)
<= 0

c_u_const_restr_vinculo_x_y(48)_:
+1 x(48)
-1 y(48)
<= 0

c_u_const_restr_vinculo_x_y(49)_:
+1 x(49)
-1 y(49)
<= 0

c_u_const_restr_vinculo_x_y(50)_:
+1 x(50)
-1 y(50)
<= 0

c_u_const_restr_vinculo_x_y(51)_:
+1 x(51)
-1 y(51)
<= 0

c_u_const_restr_vinculo_x_y(52)_:
+1 x(52)
-1 y(52)
<= 0

c_u_const_restr_vinculo_x_y(53)_:
+1 x(53)
-1 y(53)
<= 0

c_u_const_restr_vinculo_x_y(54)_:
+1 x(54)
-1 y(54)
<= 0

c_u_const_restr_vinculo_x_y(55)_:
+1 x(55)
-1 y(55)
<= 0

c_u_const_restr_vinculo_x_y(56)_:
+1 x(56)
-1 y(56)
<= 0

c_u_const_restr_vinculo_x_y(57)_:
+1 x(57)
-1 y(57)
<= 0

c_u_const_restr_vinculo_x_y(58)_:
+1 x(58)
-1 y(58)
<= 0

c_u_const_restr_vinculo_x_y(59)_:
+1 x(59)
-1 y(59)
<= 0

c_u_const_restr_vinculo_x_y(60)_:
+1 x(60)
-1 y(60)
<= 0

c_u_const_restr_vinculo_x_y(61)_:
+1 x(61)
-1 y(61)
<= 0

c_u_const_restr_vinculo_x_y(62)_:
+1 x(62)
-1 y(62)
<= 0

c_u_const_restr_vinculo_x_y(63)_:
+1 x(63)
-1 y(63)
<= 0

c_u_const_restr_vinculo_x_y(64)_:
+1 x(64)
-1 y(64)
<= 0

c_u_const_restr_vinculo_x_y(65)_:
+1 x(65)
-1 y(65)
<= 0

c_u_const_restr_vinculo_x_y(66)_:
+1 x(66)
-1 y(66)
<= 0

c_u_const_restr_vinculo_x_y(67)_:
+1 x(67)
-1 y(67)
<= 0

c_u_const_restr_vinculo_x_y(68)_:
+1 x(68)
-1 y(68)
<= 0

c_u_const_restr_vinculo_x_y(69)_:
+1 x(69)
-1 y(69)
<= 0

c_u_const_peso_maximo(0)_:
+1 x(0)
-0.2 y(0)
<= 0

c_u_const_peso_maximo(1)_:
+1 x(1)
-0.2 y(1)
<= 0

c_u_const_peso_maximo(2)_:
+1 x(2)
-0.2 y(2)
<= 0

c_u_const_peso_maximo(3)_:
+1 x(3)
-0.2 y(3)
<= 0

c_u_const_peso_maximo(4)_:
+1 x(4)
-0.2 y(4)
<= 0

c_u_const_peso_maximo(5)_:
+1 x(5)
-0.2 y(5)
<= 0

c_u_const_peso_maximo(6)_:
+1 x(6)
-0.2 y(6)
<= 0

c_u_const_peso_maximo(7)_:
+1 x(7)
-0.2 y(7)
<= 0

c_u_const_peso_maximo(8)_:
+1 x(8)
-0.2 y(8)
<= 0

c_u_const_peso_maximo(9)_:
+1 x(9)
-0.2 y(9)
<= 0

c_u_const_peso_maximo(10)_:
+1 x(10)
-0.2 y(10)
<= 0

c_u_const_peso_maximo(11)_:
+1 x(11)
-0.2 y(11)
<= 0

c_u_const_peso_maximo(12)_:
+1 x(12)
-0.2 y(12)
<= 0

c_u_const_peso_maximo(13)_:
+1 x(13)
-0.2 y(13)
<= 0

c_u_const_peso_maximo(14)_:
+1 x(14)
-0.2 y(14)
<= 0

c_u_const_peso_maximo(15)_:
+1 x(15)
-0.2 y(15)
<= 0

c_u_const_peso_maximo(16)_:
+1 x(16)
-0.2 y(16)
<= 0

c_u_const_peso_maximo(17)_:
+1 x(17)
-0.2 y(17)
<= 0

c_u_const_peso_maximo(18)_:
+1 x(18)
-0.2 y(18)
<= 0

c_u_const_peso_maximo(19)_:
+1 x(19)
-0.2 y(19)
<= 0

c_u_const_peso_maximo(20)_:
+1 x(20)
-0.2 y(20)
<= 0

c_u_const_peso_maximo(21)_:
+1 x(21)
-0.2 y(21)
<= 0

c_u_const_peso_maximo(22)_:
+1 x(22)
-0.2 y(22)
<= 0

c_u_const_peso_maximo(23)_:
+1 x(23)
-0.2 y(23)
<= 0

c_u_const_peso_maximo(24)_:
+1 x(24)
-0.2 y(24)
<= 0

c_u_const_peso_maximo(25)_:
+1 x(25)
-0.2 y(25)
<= 0

c_u_const_peso_maximo(26)_:
+1 x(26)
-0.2 y(26)
<= 0

c_u_const_peso_maximo(27)_:
+1 x(27)
-0.2 y(27)
<= 0

c_u_const_peso_maximo(28)_:
+1 x(28)
-0.2 y(28)
<= 0

c_u_const_peso_maximo(29)_:
+1 x(29)
-0.2 y(29)
<= 0

c_u_const_peso_maximo(30)_:
+1 x(30)
-0.2 y(30)
<= 0

c_u_const_peso_maximo(31)_:
+1 x(31)
-0.2 y(31)
<= 0

c_u_const_peso_maximo(32)_:
+1 x(32)
-0.2 y(32)
<= 0

c_u_const_peso_maximo(33)_:
+1 x(33)
-0.2 y(33)
<= 0

c_u_const_peso_maximo(34)_:
+1 x(34)
-0.2 y(34)
<= 0

c_u_const_peso_maximo(35)_:
+1 x(35)
-0.2 y(35)
<= 0

c_u_const_peso_maximo(36)_:
+1 x(36)
-0.2 y(36)
<= 0

c_u_const_peso_maximo(37)_:
+1 x(37)
-0.2 y(37)
<= 0

c_u_const_peso_maximo(38)_:
+1 x(38)
-0.2 y(38)
<= 0

c_u_const_peso_maximo(39)_:
+1 x(39)
-0.2 y(39)
<= 0

c_u_const_peso_maximo(40)_:
+1 x(40)
-0.2 y(40)
<= 0

c_u_const_peso_maximo(41)_:
+1 x(41)
-0.2 y(41)
<= 0

c_u_const_peso_maximo(42)_:
+1 x(42)
-0.2 y(42)
<= 0

c_u_const_peso_maximo(43)_:
+1 x(43)
-0.2 y(43)
<= 0

c_u_const_peso_maximo(44)_:
+1 x(44)
-0.2 y(44)
<= 0

c_u_const_peso_maximo(45)_:
+1 x(45)
-0.2 y(45)
<= 0

c_u_const_peso_maximo(46)_:
+1 x(46)
-0.2 y(46)
<= 0

c_u_const_peso_maximo(47)_:
+1 x(47)
-0.2 y(47)
<= 0

c_u_const_peso_maximo(48)_:
+1 x(48)
-0.2 y(48)
<= 0

c_u_const_peso_maximo(49)_:
+1 x(49)
-0.2 y(49)
<= 0

c_u_const_peso_maximo(50)_:
+1 x(50)
-0.2 y(50)
<= 0

c_u_const_peso_maximo(51)_:
+1 x(51)
-0.2 y(51)
<= 0

c_u_const_peso_maximo(52)_:
+1 x(52)
-0.2 y(52)
<= 0

c_u_const_peso_maximo(53)_:
+1 x(53)
-0.2 y(53)
<= 0

c_u_const_peso_maximo(54)_:
+1 x(54)
-0.2 y(54)
<= 0

c_u_const_peso_maximo(55)_:
+1 x(55)
-0.2 y(55)
<= 0

c_u_const_peso_maximo(56)_:
+1 x(56)
-0.2 y(56)
<= 0

c_u_const_peso_maximo(57)_:
+1 x(57)
-0.2 y(57)
<= 0

c_u_const_peso_maximo(58)_:
+1 x(58)
-0.2 y(58)
<= 0

c_u_const_peso_maximo(59)_:
+1 x(59)
-0.2 y(59)
<= 0

c_u_const_peso_maximo(60)_:
+1 x(60)
-0.2 y(60)
<= 0

c_u_const_peso_maximo(61)_:
+1 x(61)
-0.2 y(61)
<= 0

c_u_const_peso_maximo(62)_:
+1 x(62)
-0.2 y(62)
<= 0

c_u_const_peso_maximo(63)_:
+1 x(63)
-0.2 y(63)
<= 0

c_u_const_peso_maximo(64)_:
+1 x(64)
-0.2 y(64)
<= 0

c_u_const_peso_maximo(65)_:
+1 x(65)
-0.2 y(65)
<= 0

c_u_const_peso_maximo(66)_:
+1 x(66)
-0.2 y(66)
<= 0

c_u_const_peso_maximo(67)_:
+1 x(67)
-0.2 y(67)
<= 0

c_u_const_peso_maximo(68)_:
+1 x(68)
-0.2 y(68)
<= 0

c_u_const_peso_maximo(69)_:
+1 x(69)
-0.2 y(69)
<= 0

c_u_const_peso_minimo(0)_:
-1 x(0)
+0.02 y(0)
<= 0

c_u_const_peso_minimo(1)_:
-1 x(1)
+0.02 y(1)
<= 0

c_u_const_peso_minimo(2)_:
-1 x(2)
+0.02 y(2)
<= 0

c_u_const_peso_minimo(3)_:
-1 x(3)
+0.02 y(3)
<= 0

c_u_const_peso_minimo(4)_:
-1 x(4)
+0.02 y(4)
<= 0

c_u_const_peso_minimo(5)_:
-1 x(5)
+0.02 y(5)
<= 0

c_u_const_peso_minimo(6)_:
-1 x(6)
+0.02 y(6)
<= 0

c_u_const_peso_minimo(7)_:
-1 x(7)
+0.02 y(7)
<= 0

c_u_const_peso_minimo(8)_:
-1 x(8)
+0.02 y(8)
<= 0

c_u_const_peso_minimo(9)_:
-1 x(9)
+0.02 y(9)
<= 0

c_u_const_peso_minimo(10)_:
-1 x(10)
+0.02 y(10)
<= 0

c_u_const_peso_minimo(11)_:
-1 x(11)
+0.02 y(11)
<= 0

c_u_const_peso_minimo(12)_:
-1 x(12)
+0.02 y(12)
<= 0

c_u_const_peso_minimo(13)_:
-1 x(13)
+0.02 y(13)
<= 0

c_u_const_peso_minimo(14)_:
-1 x(14)
+0.02 y(14)
<= 0

c_u_const_peso_minimo(15)_:
-1 x(15)
+0.02 y(15)
<= 0

c_u_const_peso_minimo(16)_:
-1 x(16)
+0.02 y(16)
<= 0

c_u_const_peso_minimo(17)_:
-1 x(17)
+0.02 y(17)
<= 0

c_u_const_peso_minimo(18)_:
-1 x(18)
+0.02 y(18)
<= 0

c_u_const_peso_minimo(19)_:
-1 x(19)
+0.02 y(19)
<= 0

c_u_const_peso_minimo(20)_:
-1 x(20)
+0.02 y(20)
<= 0

c_u_const_peso_minimo(21)_:
-1 x(21)
+0.02 y(21)
<= 0

c_u_const_peso_minimo(22)_:
-1 x(22)
+0.02 y(22)
<= 0

c_u_const_peso_minimo(23)_:
-1 x(23)
+0.02 y(23)
<= 0

c_u_const_peso_minimo(24)_:
-1 x(24)
+0.02 y(24)
<= 0

c_u_const_peso_minimo(25)_:
-1 x(25)
+0.02 y(25)
<= 0

c_u_const_peso_minimo(26)_:
-1 x(26)
+0.02 y(26)
<= 0

c_u_const_peso_minimo(27)_:
-1 x(27)
+0.02 y(27)
<= 0

c_u_const_peso_minimo(28)_:
-1 x(28)
+0.02 y(28)
<= 0

c_u_const_peso_minimo(29)_:
-1 x(29)
+0.02 y(29)
<= 0

c_u_const_peso_minimo(30)_:
-1 x(30)
+0.02 y(30)
<= 0

c_u_const_peso_minimo(31)_:
-1 x(31)
+0.02 y(31)
<= 0

c_u_const_peso_minimo(32)_:
-1 x(32)
+0.02 y(32)
<= 0

c_u_const_peso_minimo(33)_:
-1 x(33)
+0.02 y(33)
<= 0

c_u_const_peso_minimo(34)_:
-1 x(34)
+0.02 y(34)
<= 0

c_u_const_peso_minimo(35)_:
-1 x(35)
+0.02 y(35)
<= 0

c_u_const_peso_minimo(36)_:
-1 x(36)
+0.02 y(36)
<= 0

c_u_const_peso_minimo(37)_:
-1 x(37)
+0.02 y(37)
<= 0

c_u_const_peso_minimo(38)_:
-1 x(38)
+0.02 y(38)
<= 0

c_u_const_peso_minimo(39)_:
-1 x(39)
+0.02 y(39)
<= 0

c_u_const_peso_minimo(40)_:
-1 x(40)
+0.02 y(40)
<= 0

c_u_const_peso_minimo(41)_:
-1 x(41)
+0.02 y(41)
<= 0

c_u_const_peso_minimo(42)_:
-1 x(42)
+0.02 y(42)
<= 0

c_u_const_peso_minimo(43)_:
-1 x(43)
+0.02 y(43)
<= 0

c_u_const_peso_minimo(44)_:
-1 x(44)
+0.02 y(44)
<= 0

c_u_const_peso_minimo(45)_:
-1 x(45)
+0.02 y(45)
<= 0

c_u_const_peso_minimo(46)_:
-1 x(46)
+0.02 y(46)
<= 0

c_u_const_peso_minimo(47)_:
-1 x(47)
+0.02 y(47)
<= 0

c_u_const_peso_minimo(48)_:
-1 x(48)
+0.02 y(48)
<= 0

c_u_const_peso_minimo(49)_:
-1 x(49)
+0.02 y(49)
<= 0

c_u_const_peso_minimo(50)_:
-1 x(50)
+0.02 y(50)
<= 0

c_u_const_peso_minimo(51)_:
-1 x(51)
+0.02 y(51)
<= 0

c_u_const_peso_minimo(52)_:
-1 x(52)
+0.02 y(52)
<= 0

c_u_const_peso_minimo(53)_:
-1 x(53)
+0.02 y(53)
<= 0

c_u_const_peso_minimo(54)_:
-1 x(54)
+0.02 y(54)
<= 0

c_u_const_peso_minimo(55)_:
-1 x(55)
+0.02 y(55)
<= 0

c_u_const_peso_minimo(56)_:
-1 x(56)
+0.02 y(56)
<= 0

c_u_const_peso_minimo(57)_:
-1 x(57)
+0.02 y(57)
<= 0

c_u_const_peso_minimo(58)_:
-1 x(58)
+0.02 y(58)
<= 0

c_u_const_peso_minimo(59)_:
-1 x(59)
+0.02 y(59)
<= 0

c_u_const_peso_minimo(60)_:
-1 x(60)
+0.02 y(60)
<= 0

c_u_const_peso_minimo(61)_:
-1 x(61)
+0.02 y(61)
<= 0

c_u_const_peso_minimo(62)_:
-1 x(62)
+0.02 y(62)
<= 0

c_u_const_peso_minimo(63)_:
-1 x(63)
+0.02 y(63)
<= 0

c_u_const_peso_minimo(64)_:
-1 x(64)
+0.02 y(64)
<= 0

c_u_const_peso_minimo(65)_:
-1 x(65)
+0.02 y(65)
<= 0

c_u_const_peso_minimo(66)_:
-1 x(66)
+0.02 y(66)
<= 0

c_u_const_peso_minimo(67)_:
-1 x(67)
+0.02 y(67)
<= 0

c_u_const_peso_minimo(68)_:
-1 x(68)
+0.02 y(68)
<= 0

c_u_const_peso_minimo(69)_:
-1 x(69)
+0.02 y(69)
<= 0

c_e_const_soma_peso_1_:
+1 x(0)
+1 x(1)
+1 x(2)
+1 x(3)
+1 x(4)
+1 x(5)
+1 x(6)
+1 x(7)
+1 x(8)
+1 x(9)
+1 x(10)
+1 x(11)
+1 x(12)
+1 x(13)
+1 x(14)
+1 x(15)
+1 x(16)
+1 x(17)
+1 x(18)
+1 x(19)
+1 x(20)
+1 x(21)
+1 x(22)
+1 x(23)
+1 x(24)
+1 x(25)
+1 x(26)
+1 x(27)
+1 x(28)
+1 x(29)
+1 x(30)
+1 x(31)
+1 x(32)
+1 x(33)
+1 x(34)
+1 x(35)
+1 x(36)
+1 x(37)
+1 x(38)
+1 x(39)
+1 x(40)
+1 x(41)
+1 x(42)
+1 x(43)
+1 x(44)
+1 x(45)
+1 x(46)
+1 x(47)
+1 x(48)
+1 x(49)
+1 x(50)
+1 x(51)
+1 x(52)
+1 x(53)
+1 x(54)
+1 x(55)
+1 x(56)
+1 x(57)
+1 x(58)
+1 x(59)
+1 x(60)
+1 x(61)
+1 x(62)
+1 x(63)
+1 x(64)
+1 x(65)
+1 x(66)
+1 x(67)
+1 x(68)
+1 x(69)
= 1

c_l_const_cardinalidade_total_min_:
+1 y(0)
+1 y(1)
+1 y(2)
+1 y(3)
+1 y(4)
+1 y(5)
+1 y(6)
+1 y(7)
+1 y(8)
+1 y(9)
+1 y(10)
+1 y(11)
+1 y(12)
+1 y(13)
+1 y(14)
+1 y(15)
+1 y(16)
+1 y(17)
+1 y(18)
+1 y(19)
+1 y(20)
+1 y(21)
+1 y(22)
+1 y(23)
+1 y(24)
+1 y(25)
+1 y(26)
+1 y(27)
+1 y(28)
+1 y(29)
+1 y(30)
+1 y(31)
+1 y(32)
+1 y(33)
+1 y(34)
+1 y(35)
+1 y(36)
+1 y(37)
+1 y(38)
+1 y(39)
+1 y(40)
+1 y(41)
+1 y(42)
+1 y(43)
+1 y(44)
+1 y(45)
+1 y(46)
+1 y(47)
+1 y(48)
+1 y(49)
+1 y(50)
+1 y(51)
+1 y(52)
+1 y(53)
+1 y(54)
+1 y(55)
+1 y(56)
+1 y(57)
+1 y(58)
+1 y(59)
+1 y(60)
+1 y(61)
+1 y(62)
+1 y(63)
+1 y(64)
+1 y(65)
+1 y(66)
+1 y(67)
+1 y(68)
+1 y(69)
>= 10

c_u_const_cardinalidade_total_max_:
+1 y(0)
+1 y(1)
+1 y(2)
+1 y(3)
+1 y(4)
+1 y(5)
+1 y(6)
+1 y(7)
+1 y(8)
+1 y(9)
+1 y(10)
+1 y(11)
+1 y(12)
+1 y(13)
+1 y(14)
+1 y(15)
+1 y(16)
+1 y(17)
+1 y(18)
+1 y(19)
+1 y(20)
+1 y(21)
+1 y(22)
+1 y(23)
+1 y(24)
+1 y(25)
+1 y(26)
+1 y(27)
+1 y(28)
+1 y(29)
+1 y(30)
+1 y(31)
+1 y(32)
+1 y(33)
+1 y(34)
+1 y(35)
+1 y(36)
+1 y(37)
+1 y(38)
+1 y(39)
+1 y(40)
+1 y(41)
+1 y(42)
+1 y(43)
+1 y(44)
+1 y(45)
+1 y(46)
+1 y(47)
+1 y(48)
+1 y(49)
+1 y(50)
+1 y(51)
+1 y(52)
+1 y(53)
+1 y(54)
+1 y(55)
+1 y(56)
+1 y(57)
+1 y(58)
+1 y(59)
+1 y(60)
+1 y(61)
+1 y(62)
+1 y(63)
+1 y(64)
+1 y(65)
+1 y(66)
+1 y(67)
+1 y(68)
+1 y(69)
<= 10

bounds
   0 <= x(0) <= 1
   0 <= x(1) <= 1
   0 <= x(2) <= 1
   0 <= x(3) <= 1
   0 <= x(4) <= 1
   0 <= x(5) <= 1
   0 <= x(6) <= 1
   0 <= x(7) <= 1
   0 <= x(8) <= 1
   0 <= x(9) <= 1
   0 <= x(10) <= 1
   0 <= x(11) <= 1
   0 <= x(12) <= 1
   0 <= x(13) <= 1
   0 <= x(14) <= 1
   0 <= x(15) <= 1
   0 <= x(16) <= 1
   0 <= x(17) <= 1
   0 <= x(18) <= 1
   0 <= x(19) <= 1
   0 <= x(20) <= 1
   0 <= x(21) <= 1
   0 <= x(22) <= 1
   0 <= x(23) <= 1
   0 <= x(24) <= 1
   0 <= x(25) <= 1
   0 <= x(26) <= 1
   0 <= x(27) <= 1
   0 <= x(28) <= 1
   0 <= x(29) <= 1
   0 <= x(30) <= 1
   0 <= x(31) <= 1
   0 <= x(32) <= 1
   0 <= x(33) <= 1
   0 <= x(34) <= 1
   0 <= x(35) <= 1
   0 <= x(36) <= 1
   0 <= x(37) <= 1
   0 <= x(38) <= 1
   0 <= x(39) <= 1
   0 <= x(40) <= 1
   0 <= x(41) <= 1
   0 <= x(42) <= 1
   0 <= x(43) <= 1
   0 <= x(44) <= 1
   0 <= x(45) <= 1
   0 <= x(46) <= 1
   0 <= x(47) <= 1
   0 <= x(48) <= 1
   0 <= x(49) <= 1
   0 <= x(50) <= 1
   0 <= x(51) <= 1
   0 <= x(52) <= 1
   0 <= x(53) <= 1
   0 <= x(54) <= 1
   0 <= x(55) <= 1
   0 <= x(56) <= 1
   0 <= x(57) <= 1
   0 <= x(58) <= 1
   0 <= x(59) <= 1
   0 <= x(60) <= 1
   0 <= x(61) <= 1
   0 <= x(62) <= 1
   0 <= x(63) <= 1
   0 <= x(64) <= 1
   0 <= x(65) <= 1
   0 <= x(66) <= 1
   0 <= x(67) <= 1
   0 <= x(68) <= 1
   0 <= x(69) <= 1
   0 <= r <= 10
   0 <= y(0) <= 1
   0 <= y(1) <= 1
   0 <= y(2) <= 1
   0 <= y(3) <= 1
   0 <= y(4) <= 1
   0 <= y(5) <= 1
   0 <= y(6) <= 1
   0 <= y(7) <= 1
   0 <= y(8) <= 1
   0 <= y(9) <= 1
   0 <= y(10) <= 1
   0 <= y(11) <= 1
   0 <= y(12) <= 1
   0 <= y(13) <= 1
   0 <= y(14) <= 1
   0 <= y(15) <= 1
   0 <= y(16) <= 1
   0 <= y(17) <= 1
   0 <= y(18) <= 1
   0 <= y(19) <= 1
   0 <= y(20) <= 1
   0 <= y(21) <= 1
   0 <= y(22) <= 1
   0 <= y(23) <= 1
   0 <= y(24) <= 1
   0 <= y(25) <= 1
   0 <= y(26) <= 1
   0 <= y(27) <= 1
   0 <= y(28) <= 1
   0 <= y(29) <= 1
   0 <= y(30) <= 1
   0 <= y(31) <= 1
   0 <= y(32) <= 1
   0 <= y(33) <= 1
   0 <= y(34) <= 1
   0 <= y(35) <= 1
   0 <= y(36) <= 1
   0 <= y(37) <= 1
   0 <= y(38) <= 1
   0 <= y(39) <= 1
   0 <= y(40) <= 1
   0 <= y(41) <= 1
   0 <= y(42) <= 1
   0 <= y(43) <= 1
   0 <= y(44) <= 1
   0 <= y(45) <= 1
   0 <= y(46) <= 1
   0 <= y(47) <= 1
   0 <= y(48) <= 1
   0 <= y(49) <= 1
   0 <= y(50) <= 1
   0 <= y(51) <= 1
   0 <= y(52) <= 1
   0 <= y(53) <= 1
   0 <= y(54) <= 1
   0 <= y(55) <= 1
   0 <= y(56) <= 1
   0 <= y(57) <= 1
   0 <= y(58) <= 1
   0 <= y(59) <= 1
   0 <= y(60) <= 1
   0 <= y(61) <= 1
   0 <= y(62) <= 1
   0 <= y(63) <= 1
   0 <= y(64) <= 1
   0 <= y(65) <= 1
   0 <= y(66) <= 1
   0 <= y(67) <= 1
   0 <= y(68) <= 1
   0 <= y(69) <= 1
binary
  y(0)
  y(1)
  y(2)
  y(3)
  y(4)
  y(5)
  y(6)
  y(7)
  y(8)
  y(9)
  y(10)
  y(11)
  y(12)
  y(13)
  y(14)
  y(15)
  y(16)
  y(17)
  y(18)
  y(19)
  y(20)
  y(21)
  y(22)
  y(23)
  y(24)
  y(25)
  y(26)
  y(27)
  y(28)
  y(29)
  y(30)
  y(31)
  y(32)
  y(33)
  y(34)
  y(35)
  y(36)
  y(37)
  y(38)
  y(39)
  y(40)
  y(41)
  y(42)
  y(43)
  y(44)
  y(45)
  y(46)
  y(47)
  y(48)
  y(49)
  y(50)
  y(51)
  y(52)
  y(53)
  y(54)
  y(55)
  y(56)
  y(57)
  y(58)
  y(59)
  y(60)
  y(61)
  y(62)
  y(63)
  y(64)
  y(65)
  y(66)
  y(67)
  y(68)
  y(69)
end
